SimulationType                MC
NumberOfCycles                0
NumberOfInitializationCycles  0
PrintEvery                    1

Forcefield                    Local
ModifyFrameworkAtomConnectedTo O2 O1 Ge

Framework 0
FrameworkName Local
UnitCells 1 1 1
ExternalTemperature 300.0
