Ge Si O 
 1.0000000000000000
     9.8933446535177012    0.0044424987292089   -0.0033792771281229
    -4.9428250099415791    8.5701090559877482    0.0033792783968713
    -0.0037143836088284    0.0021445020472400   10.9224488483950317
 Ge  Si  O  
   3  21  48
Direct
  0.0034140686691663  0.2359361196762725  0.1692843555181948
  0.2687780843233384  0.2687780843365206  0.4999999999006793
  0.2359361194358800  0.0034140685557733  0.8307156445236090
  0.0027126873774134  0.2340253659579393  0.6717020225962841
 -0.0024685142526313  0.7327241094984273  0.1656708619566201
 -0.0062584979737233  0.7321448156301082  0.6669938792978609
  0.5034731774608845  0.2350529735038937  0.1647768798866658
  0.5083237989530639  0.2339130699754961  0.6620892861509768
  0.4961585877675390  0.7313513359733829  0.1675335643962451
  0.4958091338326238  0.7358420256330033  0.6655675844918114
  0.2758539331762576  0.2758539331419254 -0.0000000000688583
  0.2637155726841508  0.7647030410385323  0.0013870356819924
  0.2639794441883239  0.7738291172384213  0.5004563825435597
  0.7647030411017811  0.2637155726413200 -0.0013870357541005
  0.7738291171645386  0.2639794440193982  0.4995436174514793
  0.7593952532433104  0.7593952530980471  0.0000000000387734
  0.7578148973809691  0.7578148972304100  0.5000000000372604
  0.2340253658569506  0.0027126872685308  0.3282979775552782
  0.2339130697304707  0.5083237991103086  0.3379107138860438
  0.2350529735180666  0.5034731775772926  0.8352231201523113
  0.7321448154145468 -0.0062584982487701  0.3330061207080335
  0.7327241091456418 -0.0024685145517362  0.8343291381564298
  0.7358420255232038  0.4958091338174105  0.3344324154217805
  0.7313513359212445  0.4961585878080006  0.8324664355047467
  0.0679890187497816  0.3704930967806994  0.2881191543077772
  0.0745783524432902  0.3665868977598382  0.7772150650602273
  0.0743632864125070  0.8660919076315144  0.2697387888849268
  0.0575762716345504  0.8594317107406908  0.7764212196431172
  0.5753674961093176  0.3629022316095169  0.2735696296613653
  0.5717527210928542  0.3600945678952370  0.7724711967114372
  0.5690388131190405  0.8620643234540991  0.2744900197727606
  0.5730332632112246  0.8658921856244264  0.7722011267667784
  0.1524400657846306  0.2116691041849588  0.1120530870345501
  0.1358188697422824  0.1992246553057494  0.6200581169779129
  0.1297563486591271  0.7036092612529270  0.1054451311930377
  0.1326545988204115  0.7137262010948544  0.6070179485001943
  0.6382878134830630  0.2066859385394535  0.1085633006276630
  0.6461101747244976  0.2087372491328624  0.6084253605373372
  0.6289196132454604  0.7027737021970268  0.1071812800951036
  0.6252841831208164  0.7031188658689433  0.6046610997939156
  0.2980002022764294  0.4469196863961558  0.4489471072664394
  0.2972638615675731  0.4372676476537447  0.9447838433086808
  0.2904525645885817  0.9347801183723389  0.4403807661349420
  0.2999385527213362  0.9322270281583367  0.9490168910318778
  0.7977088547986300  0.4233329507216924  0.4387147787757401
  0.7885477200177707  0.4232893608082128  0.9392389977883804
  0.7873456555577656  0.9186458360624745  0.4393707021852916
  0.7872458281101493  0.9207377433464694  0.9404403455806869
  0.3665868976504936  0.0745783525035930  0.2227849350461752
  0.3704930965499719  0.0679890190036335  0.7118808456528207
  0.3600945677743909  0.5717527213368711  0.2275288033198224
  0.3629022315982616  0.5753674963983927  0.7264303703216511
  0.8594317106507939  0.0575762718882412  0.2235787802934557
  0.8660919074624337  0.0743632864817845  0.7302612111721515
  0.8658921856956899  0.5730332636012743  0.2277988731672162
  0.8620643234826516  0.5690388134331632  0.7255099800926351
  0.1992246553050410  0.1358188695289276  0.3799418831512660
  0.2116691038731917  0.1524400654139176  0.8879469131755925
  0.2087372488863490  0.6461101746041019  0.3915746397870080
  0.2066859382461605  0.6382878131040183  0.8914366997227495
  0.7137262007100903  0.1326545982843794  0.3929820517748043
  0.7036092607984769  0.1297563482227841  0.8945548690467257
  0.7031188654907697  0.6252841826592560  0.3953389005887062
  0.7027737020600829  0.6289196129633737  0.8928187201875653
  0.4372676478857191  0.2972638615624802  0.0552161564322159
  0.4469196866546148  0.2980002026082694  0.5510528925197422
  0.4232893610565752  0.7885477199929408  0.0607610018551646
  0.4233329510149363  0.7977088547562321  0.5612852208855700
  0.9322270285816522  0.2999385527852679  0.0509831085826105
  0.9347801186832340  0.2904525646145800  0.5596192336880677
  0.9207377437305319  0.7872458281981719  0.0595596543281825
  0.9186458365217771  0.7873456555296213  0.5606292975307100
