Ge Si O 
 1.0000000000000000
     9.9027947649226977    0.0019146929553671    0.0016306874671793
    -4.9497392095471620    8.5731996804933956   -0.0000000227459601
     0.0017905952035024    0.0010337710230602   10.9141847645076702
 Ge  Si  O  
   3  21  48
Direct
  0.0000000017280145  0.2287797345502768  0.1666666647840808
  0.2788369108334033  0.2708465060938664 -0.0007716017522232
  0.7211630930070986 -0.0079904016518317  0.3341049353222269
 -0.0000000025624574  0.2329635284439688  0.6666666665949246
 -0.0000000006467115  0.7412147110968765  0.1666666671333888
 -0.0000000008744035  0.7324763001191986  0.6666666675475593
  0.5151634953686119  0.2384854784068355  0.1677570637406239
  0.5022950722778392  0.2378429866415401  0.6674174279958186
  0.4848365062176674  0.7233219786534772  0.1655762689550333
  0.4977049211990933  0.7355479058885485  0.6659159044869039
  0.2664644679046984  0.2659145460039040  0.5004903599024174
  0.2595170303785093  0.7646867224641798 -0.0033132781359290
  0.2655416796204741  0.7656784190422984  0.4977576501601648
  0.7709493414553584  0.2660137868389734 -0.0017321813005461
  0.7678612768840448  0.2706694916157757  0.5009394067690434
  0.7576514969563450  0.7630622836708325  0.0026528678456769
  0.7615449589801212  0.7619716960059864  0.5043682844281930
  0.2423485058965640  0.0054107868365159  0.3306804594414839
  0.2384550469226269  0.0004267342460845  0.8289650450056810
  0.2290506623399801  0.4950644452091603  0.3350655216841366
  0.2321387231899090  0.5028082082890489  0.8323939299848557
  0.7335355307110416 -0.0005499276705095  0.8328429709808023
  0.7404829780399518  0.5051696939034129  0.3366466096242533
  0.7344583235736416  0.5001367375426209  0.8355756818439619
  0.0594724638848819  0.3600402349205854  0.2882087009915563
  0.0744557819392880  0.3639206294188779  0.7733356918204736
  0.0811981975444974  0.8757509895471368  0.2692741969112875
  0.0778762356452683  0.8654553277137721  0.7708730952367471
  0.5832129716874784  0.3684911734533350  0.2751366423497058
  0.5732393019514336  0.3676970270071389  0.7749676406778552
  0.5437954047235660  0.8444708197224146  0.2800334526972764
  0.5731477866092569  0.8682903833488068  0.7709150887483792
  0.1510727953751976  0.1986285417363075  0.1225409459477262
  0.1326311535786985  0.2056623852177815  0.6049329233290742
  0.1277227740664257  0.7095078177709572  0.1018290506650732
  0.1327927908286087  0.7066090131260503  0.6033171233074555
  0.6506765699771251  0.2090576255416563  0.1132735682937744
  0.6383200380499200  0.2146985244938830  0.6082562380149944
  0.6242830806789640  0.7039357442312237  0.1076781517472589
  0.6285485113413702  0.7015620786218631  0.6093977259565422
  0.2936797585370759  0.4270874816493329  0.4408039771145416
  0.2988292085718398  0.4432651360454311  0.9429944688003752
  0.2943669249223756  0.9266548536359894  0.4370953859576817
  0.2938719395816801  0.9291198757803463  0.9387241755203337
  0.7996993217684631  0.4352372753734175  0.4448674471865415
  0.7906713024159789  0.4250684606562056  0.9413583280317231
  0.7921482172872447  0.9276038691019652  0.4522965626721035
  0.7854778767320827  0.9228037798793949  0.9404932055025200
  0.3757169088459610  0.0796526597736084  0.2256551640803132
  0.3714514803337228  0.0730135598106028  0.7239355941876300
  0.3493234252012007  0.5583810528097747  0.2200597662519183
  0.3616799568076065  0.5763784690202938  0.7250770920308701
  0.8489271970839725  0.0475557528268143  0.2107923816786915
  0.8673688308019509  0.0730312187461590  0.7284003954591629
  0.8722772253012396  0.5817850267438445  0.2315042710838888
  0.8672072115612887  0.5738162101642748  0.7300162061038661
  0.2145221256635640  0.1373258990946542  0.3928401311688642
  0.2078518014145601  0.1354556572354293  0.8810367659143046
  0.2093286908830948  0.6343971512868446  0.3919750114126312
  0.2003006826300020  0.6355379485696353  0.8884658912608234
  0.7011707896348255  0.1444359220963920  0.3903388750586524
  0.7063202586494508  0.1334077228431388  0.8925293654125142
  0.7061280716442832  0.6352479416408692  0.3946091533080765
  0.7056330854934966  0.6322879333299356  0.8962379412473452
  0.4562046000858763  0.3006754225817508  0.0532998816757043
  0.4268522009469716  0.2951425907952604  0.5624182485054237
  0.4167870273707995  0.7852782111109808  0.0581967036407845
  0.4267606946631985  0.7944577183032726  0.5583656924414082
  0.9405275470039505  0.3005677964855122  0.0451246404842757
  0.9255442131231278  0.2894648559088351  0.5599976520215796
  0.9188017869714883  0.7945527835554766  0.0640591484814658
  0.9221237607830213  0.7875790950302450  0.5624602465641033
