Ge Si O 
 1.0000000000000000
     9.9133344114898012    0.0346152639085562    0.0101473748983830
    -4.9267005895201672    8.5384354097026893    0.0004904088905247
     0.0112108026858553    0.0070757927881059   10.9272040768344585
 Ge  Si  O  
   3  21  48
Direct
  0.0047194653979538  0.2309410881491647  0.1655034914287971
  0.0013563419166865  0.2303738953044137  0.6654094411289067
  0.5062223327330478  0.2341244444867971  0.1641607092176989
 -0.0049360098872379  0.7365573659675587  0.1679114190759257
 -0.0011265356783787  0.7395021447218770  0.6680076448487604
  0.5067499929407724  0.2352748888509601  0.6641928601743320
  0.4934619657007079  0.7327430254325092  0.1692827541436817
  0.4935772761889908  0.7332385400730250  0.6692478235939152
  0.2731295272220807  0.2682786974945745 -0.0040783508315800
  0.2737994456076566  0.2656120831186484  0.4981196399324482
  0.2621277273935924  0.7682509982587379  0.0019166985303750
  0.2616370590423126  0.7653163207781415  0.5016324667688516
  0.7735866390250581  0.2665932317464521 -0.0048233539384376
  0.7668278602552406  0.2656870112257266  0.4954536782445202
  0.7574070563695422  0.7620651529683403  0.0025974060413456
  0.7609027532383145  0.7676380253569351  0.5038965391107968
  0.2337852969792518 -0.0017376083719173  0.3309252947088048
  0.2404058583333206  0.0045671610283369  0.8307738358605660
  0.2351199914965605  0.4990176314891691  0.3378217766294520
  0.2319945549624835  0.5015224554425266  0.8366923179051390
  0.7299323258028012 -0.0029516143888697  0.3326856534626286
  0.7300184865538162 -0.0050648041754159  0.8328365019243381
  0.7346142965050483  0.5038159672881959  0.3360406043314775
  0.7345957198466203  0.5010410595166905  0.8341739530387943
  0.0706109845068314  0.3657886986946199  0.2839173242011266
  0.0680197236449588  0.3686934146103315  0.7814425042822258
  0.0695183222159569  0.8667794857246942  0.2749912475743226
  0.0793813927683941  0.8722698627166426  0.7720663322525723
  0.5701332988881687  0.3719498740920227  0.2806041351415361
  0.5785759461171874  0.3681613902738446  0.7692722742361329
  0.5675199399175497  0.8616812347504968  0.2772359200842141
  0.5664198470801799  0.8618143513584925  0.7775411790751786
  0.1524016438764844  0.2016710138429139  0.1101425700594468
  0.1470737225808086  0.2001045502375949  0.6081643595917993
  0.1281078655154374  0.7106072862764373  0.1055532632141104
  0.1274705646461996  0.7073915685871629  0.6049358994030376
  0.6535505191708779  0.2039770719436816  0.1098992763453416
  0.6402271480166510  0.2061084373734589  0.6056140109415400
  0.6253122944316808  0.7041255508334537  0.1077295349234191
  0.6268744417641867  0.7064622267828997  0.6079995963772846
  0.2962689101849313  0.4279686057920024  0.4439197514466426
  0.2900768364248824  0.4289537567056092  0.9435584914406507
  0.2887654087214788  0.9256469827484441  0.4400227313629744
  0.2934013970071702  0.9307249021321470  0.9406463999652063
  0.7919210254123448  0.4286935321798769  0.4410992765334624
  0.7908059625216622  0.4261522473278267  0.9403893357178605
  0.7860383716096360  0.9284844449114404  0.4441942272511897
  0.7849328951577068  0.9234984202443168  0.9426604153197413
  0.3604644836815693  0.0578657613371501  0.2210218394045427
  0.3733705742335408  0.0751924680341065  0.7256714411648176
  0.3612315801572182  0.5701581455777157  0.2279690324608198
  0.3601675368970912  0.5711353469161876  0.7278656968999737
  0.8572582635637532  0.0560326591858861  0.2231209647063405
  0.8570055380840350  0.0538807705038042  0.7231444557096591
  0.8632889602353253  0.5747193788333890  0.2279459795039933
  0.8683046559087642  0.5798787975649839  0.7306951717901978
  0.2161545973296257  0.1399961797851390  0.3873351676290775
  0.2130209307607581  0.1408155608647362  0.8865158981450740
  0.2087956271226764  0.6340634316180523  0.3962659307239315
  0.2078618707135845  0.6382487951089714  0.8949544704170818
  0.7071634429308906  0.1372602172793143  0.3863936435394824
  0.7116918323355979  0.1371978385330095  0.8870090048417862
  0.7094587218560754  0.6389398280273072  0.3961973404386097
  0.7026907135206450  0.6312893085112269  0.8959281681368771
  0.4411824420407676  0.3008268058547346  0.0431170359110456
  0.4349580859949391  0.2911680459556474  0.5550630716522467
  0.4198546318410104  0.7930036197517595  0.0650136073185264
  0.4206668036585041  0.7938910160203165  0.5647324133474393
  0.9407429291651147  0.2990945490437864  0.0446637413710239
  0.9318180612963421  0.2957210639311537  0.5471406830490818
  0.9183264729813928  0.7924506953750415  0.0631146289082700
  0.9212033535597226  0.7970536444793960  0.5651397508547761
