Ge Si O 
 1.0000000000000000
     9.9196377229786048    0.0122136425969230    0.0032325602859840
    -4.9492334943320753    8.5504854130199472    0.0033057269332138
     0.0035616819692130    0.0063092433118779   10.9221037255484035
 Ge  Si  O  
   3  21  48
Direct
  0.0000065494368193  0.2315550569542514  0.1671092356578483
 -0.0026928099448934  0.2251026838484630  0.6658594504860033
  0.2674130294535412  0.7699743826010857  0.0003973459243503
 -0.0009404951409346  0.7384318225802473  0.1698743501655628
  0.0019971414328418  0.7416120183211943  0.6676094288826879
  0.5032376286228265  0.2369398145385009  0.1625063027877944
  0.5058817657309257  0.2391036016159256  0.6627087507195539
  0.4996707910321929  0.7291036400395581  0.1698070333549690
  0.4928937848244263  0.7299768430164676  0.6695136990673508
  0.2718568773580240  0.2710328394103448 -0.0020053312864615
  0.2721706132573002  0.2672849929316048  0.4978698570762728
  0.2668205334891867  0.7700283841778679  0.5001617489999217
  0.7639750884157512  0.2627627930514591 -0.0040814409362904
  0.7641752123357308  0.2629496493793569  0.4957671806222249
  0.7631032893136143  0.7620516046799292  0.0042487762323249
  0.7593033692234822  0.7627417922392353  0.5043263647473399
  0.2402568337390845  0.0044772466925843  0.3297907881223269
  0.2399033625540894  0.0107107931331500  0.8299441741079241
  0.2345720366783327  0.5009496208035719  0.3366504144299894
  0.2315274282617820  0.4977353226189991  0.8341863524201434
  0.7292853429699141 -0.0069632747016311  0.3352625756648305
  0.7262056805746913 -0.0098508362706071  0.8359847595742165
  0.7311292335675299  0.5003442371989808  0.3339686680664067
  0.7371386357368690  0.5026629542864699  0.8325293689739021
  0.0681885369352514  0.3682489788751377  0.2842540521378477
  0.0669610629290794  0.3594101710723565  0.7842549584573154
  0.0761099400094985  0.8724312836424138  0.2737871727114236
  0.0793371700825148  0.8745487500213350  0.7724328871102077
  0.5734212522278620  0.3676980121530911  0.2697076168656313
  0.5791723257081692  0.3725325725672970  0.7673182763339917
  0.5678134367736019  0.8554596737291414  0.2799903213026929
  0.5626475676274111  0.8544826729230883  0.7810955396183609
  0.1459131708487533  0.2030055480236611  0.1084670141282878
  0.1438869634131023  0.1977491490263369  0.6067546693027244
  0.1294296357976129  0.7021844020743503  0.1162120414903774
  0.1329742621615534  0.7145825141216666  0.6036048943619174
  0.6372229116067669  0.2080938383554697  0.1055446369311126
  0.6375337874184183  0.2068590313601921  0.6055871341905587
  0.6344611537725042  0.7010404667034927  0.1130207631765180
  0.6275435496698206  0.7046280965771037  0.6099402399588079
  0.2935843864353737  0.4288361880642308  0.4434828605966104
  0.2937190488068892  0.4339884653636061  0.9452753750262770
  0.2975618745128211  0.9309571899126995  0.4367980299040136
  0.2997912009210409  0.9464151133713287  0.9419020550319899
  0.7878122429313064  0.4232480069913655  0.4376763662170484
  0.7896963542668078  0.4232611370640165  0.9369782411253508
  0.7873420935489556  0.9245852331475761  0.4450926791760034
  0.7852200889802878  0.9219890584691495  0.9455228304195379
  0.3689393904259449  0.0749518639310887  0.2214322520176920
  0.3704349165947275  0.0797355355296219  0.7231352838336735
  0.3601061097701439  0.5681165083728379  0.2255465065001252
  0.3578458099058835  0.5650000231339420  0.7237850110680377
  0.8561532371186029  0.0551041481766509  0.2254262882856328
  0.8509975595271138  0.0498018331240154  0.7242866482975920
  0.8638549618644862  0.5796185169026642  0.2301120074068250
  0.8724572929561014  0.5810154778957977  0.7302154797396514
  0.2167714892911774  0.1413749422967996  0.3877662240243233
  0.2137360970549682  0.1474586670783773  0.8856041456970505
  0.2125147463190228  0.6382871154730729  0.3949478829681244
  0.2011959194902417  0.6345490531098962  0.8827398907437046
  0.7047204079290025  0.1311987307357440  0.3894389585618884
  0.7044158473855610  0.1299351503659264  0.8904433505826155
  0.7021854645822844  0.6309423741254602  0.3981591524853982
  0.7072421190654783  0.6327340490380436  0.8963156367355579
  0.4336835597104313  0.2957119542431259  0.0535545536270308
  0.4353122642347391  0.2964720847202870  0.5537640903235436
  0.4404950581890117  0.7967669473997779  0.0599384136343671
  0.4240561178903126  0.7950756744032109  0.5649593050815520
  0.9294501844715628  0.2965126053593264  0.0495968840883643
  0.9291225630014101  0.2947717016269303  0.5495176545370798
  0.9269699158797423  0.7939906661846160  0.0609055532464769
  0.9211040270317032  0.7939208400146355  0.5637183170744776
