Ge Si O 
 1.0000000000000000
     9.8942215453889464    0.0247744070352250    0.0038257790278646
    -4.9256537621105689    8.5569857657181920   -0.0007752105661018
     0.0042677908909203    0.0014172277188059   10.9241417249262476
 Ge  Si  O  
   3  21  48
Direct
  0.0086238793491113  0.2363646930610486  0.1673285868374191
  0.5057266995526777  0.2323240465811968  0.1622440612315304
  0.2282437120635162 -0.0018568209454996  0.3320079523613298
  0.0021196349094587  0.2366004286696809  0.6669920054423308
 -0.0108886141759736  0.7267100776020742  0.1675143726804338
 -0.0009851345265119  0.7361931432601436  0.6674768476428644
  0.4993644134455093  0.2327116594781120  0.6642147491269392
  0.4953715970519231  0.7352127955946446  0.1673813801842276
  0.5011947814304680  0.7354327515284352  0.6686614230275628
  0.2734393766812638  0.2682447765083299 -0.0036091463748799
  0.2672178864406626  0.2717883171179443  0.4993944416031417
  0.2592389606836868  0.7648102943949625  0.0022923279567687
  0.2655480413956951  0.7683392833952339  0.5050718905145117
  0.7764147302080426  0.2690053688191747 -0.0042156708273515
  0.7646582312618062  0.2624981184497570  0.4988887035953973
  0.7584336343943422  0.7610143925253097 -0.0002014949832719
  0.7635771725446424  0.7634896486825049  0.5005695589031259
  0.2351783759169870  0.0010560299530752  0.8322084272483020
  0.2373890024718698  0.5067867255367942  0.3380793835378978
  0.2333574291670274  0.5018973948836996  0.8349525837800337
  0.7336248728362460 -0.0028616692495027  0.3321945905136574
  0.7398135940533829  0.0011039916361727  0.8325144991165181
  0.7319704543793599  0.4960612329864277  0.3354709475397997
  0.7323541101838448  0.4992215394262804  0.8323795077761194
  0.0721055082378514  0.3721824658377924  0.2852846604798314
  0.0750332047966361  0.3703130716413129  0.7713493175697431
  0.0503890643456334  0.8507707130042145  0.2795723274995344
  0.0743216435358903  0.8693383623337396  0.7720344835980508
  0.5649054618086145  0.3622833176779851  0.2843639167836206
  0.5751460713814788  0.3660566075536609  0.7687473945017472
  0.5708606359766667  0.8652778583594239  0.2742176300325961
  0.5793981636281861  0.8692571137849159  0.7723157602401800
  0.1567765921281762  0.2064348432222039  0.1133416330961446
  0.1368494233796714  0.2117998349892727  0.6063092771830988
  0.1279387330093617  0.7070453961015358  0.1085183950788402
  0.1313565125211598  0.7053027354868286  0.6092299405299799
  0.6578375433657468  0.2077630951940942  0.1111172310541587
  0.6308477509819090  0.2027320752850527  0.6031777644699448
  0.6264285285732798  0.7059314246755877  0.1048980872270919
  0.6318512251165526  0.7047485793268566  0.6067240832859963
  0.2981551098806062  0.4377698368832355  0.4462402998818978
  0.2878719135732918  0.4264083127492286  0.9419493136796865
  0.2957641083729302  0.9344475288536923  0.4535319790017660
  0.2880447074020552  0.9256289151707242  0.9406090049058535
  0.7937521092960657  0.4253950776804447  0.4412027157089090
  0.7907431182787061  0.4261111825042863  0.9386378618372885
  0.7883110370775165  0.9236601761028821  0.4408863260185235
  0.7922033700310129  0.9246087290493689  0.9403099482462257
  0.3584397538469433  0.0509873926224850  0.2102609472290496
  0.3680109669511075  0.0732485066567476  0.7271817002227675
  0.3632786307233588  0.5741009196005920  0.2279056540834042
  0.3684013539359030  0.5771849074758051  0.7317227548274947
  0.8620241682100442  0.0604281755222394  0.2234765433511846
  0.8734572724362886  0.0743521112498251  0.7282245310687914
  0.8555883866865075  0.5624428488238676  0.2233350243583276
  0.8656379214853762  0.5767331209905969  0.7281745668100854
  0.2040369234803413  0.1496851321203881  0.3859204500447309
  0.2089441928306242  0.1368990828137844  0.8898467197258760
  0.2119484023312792  0.6437552557422576  0.3941510232778417
  0.2037581283034003  0.6340252961279208  0.8955221629484809
  0.7109496635277319  0.1350960151013523  0.3898471593817217
  0.7136824255015314  0.1368716694533531  0.8899642323366261
  0.7088301627846947  0.6329463577786936  0.3942603223937529
  0.7008430895585295  0.6302786032793647  0.8929299161025185
  0.4437220884498873  0.3031175989173776  0.0414766893157351
  0.4246002811029883  0.2888862594013019  0.5575424134807000
  0.4198373408126984  0.7927652172881058  0.0626607395244856
  0.4251931149927869  0.7924584929076882  0.5641383584709693
  0.9449376706641854  0.3031160972468619  0.0447845540648162
  0.9236427337793136  0.2891014840653341  0.5610623090820580
  0.9172332770363825  0.7849602353089465  0.0604758581163420
  0.9251236721479631  0.7931437461364969  0.5607540894342865
