Ge Si O 
 1.0000000000000000
     9.8930448704457987    0.0245423534347415    0.0055252540070515
    -4.9252696092944230    8.5592641136851455   -0.0033950313032307
     0.0061440965844461   -0.0008337787357021   10.9202787805636454
 Ge  Si  O  
   3  21  48
Direct
  0.0050976461506231  0.2354801308618968  0.1673493371220240
  0.4988325252962812  0.2307381485113858  0.6637944664266807
  0.2341189510705556  0.0038164165203010  0.3319832652163454
  0.0064129259730138  0.2374953145378524  0.6667725847775245
 -0.0073684571408407  0.7292961185524804  0.1680362312735403
 -0.0051704928391993  0.7334626756882122  0.6676254751415254
  0.5060101922908545  0.2336527237027594  0.1622213067704619
  0.4955482230244345  0.7360215714281135  0.1674405268732114
  0.5011445629306386  0.7352338975674989  0.6687591055219465
  0.2737393205418000  0.2656462131859207 -0.0014245053881391
  0.2668019587330028  0.2739561723572543  0.4967471795871181
  0.2590435592082275  0.7624585706046596  0.0023312467341822
  0.2654675859367019  0.7706859457195677  0.5055851775003181
  0.7700695188652577  0.2683627428401654 -0.0040708787412298
  0.7718771769220570  0.2635075989355313  0.4988158192554055
  0.7621860510703976  0.7665923575751837  0.0010640666824519
  0.7603622982648187  0.7586495695936916  0.4992099745721325
  0.2285278414927355 -0.0051500346800201  0.8326610239276442
  0.2345791902068809  0.5089890761978071  0.3369905895472166
  0.2363840821017099  0.5000093839162436  0.8363227319151312
  0.7333850255220844 -0.0048520212904033  0.3322546979271800
  0.7404417206840290  0.0034193042581519  0.8320306835727339
  0.7318243763861030  0.4932428801375687  0.3335517530575030
  0.7319165245690714  0.5017473545026334  0.8341844753273912
  0.0697976596285017  0.3743164254749130  0.2832585710462114
  0.0778106288178170  0.3685653651026115  0.7731051149424686
  0.0583844238834498  0.8555426888036134  0.2781649791065280
  0.0645079666810212  0.8634746202770316  0.7754356332424263
  0.5719402691520461  0.3589137185264369  0.2732827662232440
  0.5666769943033386  0.3693089953784000  0.7798540843131454
  0.5691814995795342  0.8654615581754098  0.2749259773488381
  0.5810779640309064  0.8693067635242263  0.7720643127733156
  0.1509530059139339  0.2039759852860698  0.1114551805105317
  0.1426787211750952  0.2122445595539724  0.6085797299454210
  0.1286033067709093  0.7050952412971450  0.1089723788425480
  0.1310205189774516  0.7081902618276968  0.6097110200928769
  0.6439557949182204  0.2097170149439861  0.1061540108405936
  0.6449908981760306  0.1997401388575876  0.6086449789322598
  0.6286928912880735  0.7092678685427131  0.1055387595795433
  0.6297062309157238  0.7023772252393247  0.6057433608082909
  0.2926893789250229  0.4387030934175976  0.4458044020785919
  0.2930478065845452  0.4253884441912294  0.9427318404060450
  0.2998970474855133  0.9385433720065620  0.4538433930984257
  0.2834576213573677  0.9211498088496881  0.9406410781311091
  0.7917015876808565  0.4225591713683916  0.4407899421882881
  0.7919477420484194  0.4287605674089888  0.9391275550452763
  0.7871897790287971  0.9191747083078768  0.4391925941797722
  0.7944655596996499  0.9297794477995451  0.9413489958881528
  0.3707675363158028  0.0678735647663350  0.2145326950394465
  0.3550273246029887  0.0555452405948010  0.7226686876484489
  0.3621724609149613  0.5752164228819480  0.2276113121576354
  0.3699893383984323  0.5767993477205852  0.7324265165817812
  0.8607806790215359  0.0580840456866743  0.2228911417896222
  0.8737314261779547  0.0766545331160683  0.7271952654507562
  0.8603299953047752  0.5661543518184635  0.2253415243301557
  0.8601602092388217  0.5718968214266312  0.7254677171282984
  0.2006282165100593  0.1503744826848517  0.3842849868150090
  0.2120646493351682  0.1364745140337149  0.8902547585646681
  0.2109679374406094  0.6471001968412310  0.3934501701479043
  0.2043834096512787  0.6303073529906609  0.8971001301078423
  0.7155009840205561  0.1353552925101682  0.3903755095070660
  0.7104838463437101  0.1372945938278342  0.8891177779752255
  0.7036166579686222  0.6265651310556108  0.3936546789071452
  0.7066460115693610  0.6372554555114305  0.8934243947239683
  0.4376657309162174  0.2939884325880109  0.0532289172008771
  0.4315829648406259  0.2971085581643400  0.5441063142235543
  0.4210587611830542  0.7938394484065459  0.0621119347352378
  0.4238230546291811  0.7918606306887024  0.5650529896488335
  0.9364325689044272  0.3004719424394435  0.0476013137044759
  0.9340898930362023  0.2932190082884346  0.5577558772816208
  0.9202438922739060  0.7890065063021208  0.0623544983760284
  0.9222448471160849  0.7895349702675144  0.5593838937869828
