Ge Si O 
 1.0000000000000000
     9.9196204588047401    0.0114785262386044    0.0092402473782789
    -4.9498708319036755    8.5484003681110750    0.0060165119373697
     0.0101819307921301    0.0135682192772443   10.9150022125116770
 Ge  Si  O  
   3  21  48
Direct
 -0.0000043627608023  0.2339146531885261  0.1669250258408545
 -0.0008573405301136  0.7366428521510171  0.1654691254235061
  0.7670999031975378  0.2652445260464278  0.4996900023768198
  0.0061098380662623  0.2346003123554431  0.6675518916670600
 -0.0031375544132284  0.7357692898091704  0.6650305063200398
  0.5022053157946812  0.2336267238737529  0.1676445807459278
  0.4994423260165688  0.2335528596982463  0.6694680456727569
  0.4972451133295737  0.7286192646430401  0.1659232362417192
  0.4995089353419161  0.7361044696618430  0.6669830079314555
  0.2715410553083853  0.2642958961163078  0.0008318524614406
  0.2706734351492591  0.2680533988572137  0.5019176259822543
  0.2675484977560795  0.7619488586680195 -0.0006754423832612
  0.2646879732307792  0.7671215650592973  0.5004681732016873
  0.7647666540630697  0.2686425379350418 -0.0015981241759721
  0.7617592229648287  0.7672226529983468 -0.0027228435941966
  0.7619255009363601  0.7660658049773494  0.4988275319086968
  0.2386159108780796  0.0038384361300840  0.3345602630429104
  0.2326638698613333 -0.0030851430820775  0.8338515545998814
  0.2360148560698200  0.5006488323300392  0.3366135832800982
  0.2387619249178399  0.4979834283754574  0.8346712127323180
  0.7285671642725191 -0.0067062429950732  0.3302836025585151
  0.7334050279057900  0.0040022689132586  0.8318437953067140
  0.7284358528105233  0.5002606453442938  0.3335778555122403
  0.7324768809233601  0.5023153130968688  0.8325919921488735
  0.0680613526161075  0.3672248337548263  0.2865820769513979
  0.0792343745935608  0.3641483527185800  0.7747535796938935
  0.0710545013825694  0.8727308710930908  0.2828000379656961
  0.0722725034580617  0.8662811677579456  0.7719350777270075
  0.5680145853876974  0.3604044862097405  0.2780952815054830
  0.5720102909415932  0.3669775873489092  0.7741837657950624
  0.5668848249804392  0.8556337669494654  0.2754160348651876
  0.5742825001023911  0.8700266609413514  0.7710002281005389
  0.1469538881738345  0.2050732854527384  0.1120082754728344
  0.1396725838416615  0.2057055082970027  0.6092651675186390
  0.1412583482483510  0.7010172486622567  0.1093794763885600
  0.1295037545946893  0.7083567895707011  0.6037018177691076
  0.6388718185079832  0.2096786043113985  0.1093028515974886
  0.6305011006411938  0.1971324724622642  0.6171161313181317
  0.6334590154761087  0.7044804764402451  0.1065988189414372
  0.6306387108541289  0.7069121097660339  0.6051843956488379
  0.2962602727264456  0.4300787959115417  0.4439867124200733
  0.2963247142686795  0.4249660599257829  0.9415883933006832
  0.2959931750845302  0.9301522997338086  0.4411133520684804
  0.2890456968403723  0.9209479978230871  0.9394517406979876
  0.7933187417803503  0.4410209293741524  0.4452437099278812
  0.7885242338910740  0.4297444256155182  0.9407057938169751
  0.7881764325295108  0.9285519453836849  0.4418730538775423
  0.7853407292948569  0.9284107793353757  0.9403879964793624
  0.3656946597991564  0.0710387200528023  0.2245381030776986
  0.3637938354788404  0.0728106453202311  0.7278964059991559
  0.3608842980689758  0.5669738270892282  0.2246107238695198
  0.3701622553769744  0.5740579576353265  0.7286615268304355
  0.8549846850244546  0.0546173363377432  0.2200937077053422
  0.8670637250772102  0.0759861026688469  0.7267068282855230
  0.8520750586720238  0.5610750805251544  0.2216896240417130
  0.8641813112952952  0.5745296777736554  0.7262065762768101
  0.2158325128245034  0.1409610797103254  0.3929612566256297
  0.2088248616726034  0.1318904753230206  0.8953259153137318
  0.2124128062330549  0.6382009152078406  0.3931090775731106
  0.2097200560406028  0.6309265728709742  0.8931632930119793
  0.7013486197368097  0.1318508367000510  0.3800037777192745
  0.7059648907072146  0.1382211969282881  0.8909557418026627
  0.7050288669890055  0.6388803688267222  0.3889119583740897
  0.7047311516517714  0.6371947160354604  0.8897462538551835
  0.4337818074520949  0.2923006286386376  0.0577596822159256
  0.4311797447578763  0.2933068295381406  0.5604211192026203
  0.4291046455208842  0.7898689587105167  0.0576762072522636
  0.4227307813587175  0.7924261424693609  0.5628170972570378
  0.9316360906146367  0.3024647280721361  0.0498161599700028
  0.9427630511911732  0.2979102057244463  0.5575717621247076
  0.9294518626030300  0.8036813487305731  0.0484909313839713
  0.9215342705436453  0.7924849901149165  0.5594644455775469
