Ge Si O 
 1.0000000000000000
     9.9018287568571388   -0.0020640683764887    0.0005994187382105
    -4.9527002555102664    8.5707654933943189   -0.0050197545977331
     0.0006588884612244   -0.0060131310618075   10.9165916362689241
 Ge  Si  O  
   3  21  48
Direct
 -0.0010521649527036  0.2323204188975818  0.1695482652776295
  0.2726026629894151  0.2666441517026246 -0.0011120927798796
  0.7363715874542410  0.4992685377813483  0.3349342353369816
  0.0042849969720428  0.2319835027486066  0.6684529509229709
  0.0005603127788441  0.7381321714685354  0.1639141821720842
 -0.0043424329591196  0.7328510133592744  0.6648938371312199
  0.5048395331629281  0.2278527868715265  0.1654154178786680
  0.5011657421458244  0.2348077161697788  0.6654278531651523
  0.4942868539516080  0.7330378748770063  0.1678255862406505
  0.4988012601330932  0.7390394079296936  0.6678126394076961
  0.2681831547415546  0.2649178380730334  0.4980869094270454
  0.2660951568351292  0.7692595034912766 -0.0027566887382299
  0.2645804243124908  0.7680592458372970  0.5001316049929742
  0.7686744357979300  0.2667478122808264 -0.0011756475400839
  0.7678738550922956  0.2636767880048656  0.5034199643194204
  0.7601018387182465  0.7635771858443404  0.0021748994268968
  0.7608114578377992  0.7677588698753169  0.5013941632758370
  0.2355541281280604  0.0000665872436238  0.3296071586114852
  0.2355902238801586 -0.0008316211248115  0.8278409174415862
  0.2357167335954752  0.5005772206489308  0.3362662156251664
  0.2356753596903226  0.5040981154704209  0.8336759810557333
  0.7251989679031042 -0.0035577053939985  0.3355864190495539
  0.7370623723722625  0.0010146167652965  0.8345917995335836
  0.7314590619429606  0.4993776433357312  0.8341467217289331
  0.0663940724583919  0.3684052986847309  0.2872435458820938
  0.0783867349610924  0.3648587472877794  0.7739433829795241
  0.0719862116777103  0.8659593431473565  0.2730092715691040
  0.0742134831214403  0.8636630680558385  0.7708171172074946
  0.5622558439070822  0.3508497875196736  0.2779789400104742
  0.5711483594876173  0.3657339219209322  0.7725899656589591
  0.5627683791061133  0.8599301917885834  0.2785153412018014
  0.5756341703195589  0.8700976466078246  0.7738383214392883
  0.1433898199734266  0.1942088588937853  0.1213837949009329
  0.1373593826796768  0.2063885224593372  0.6051787544178461
  0.1354418254208173  0.7149483550433405  0.1028703955973382
  0.1281374127599459  0.7061450515922409  0.6023455652376126
  0.6456653525971038  0.2063734970149675  0.1121374764175560
  0.6360229901751789  0.2071655629208161  0.6090938305187402
  0.6294873201170109  0.7070681449732090  0.1090260165864557
  0.6300442855099270  0.7087945157867666  0.6077822741007277
  0.2969564919057338  0.4275570714155291  0.4403762100731222
  0.2992716463808762  0.4423871009051348  0.9447763924413084
  0.2921233447176613  0.9277103472771269  0.4378806540543822
  0.2957040129141114  0.9308756708683846  0.9366229675753902
  0.8059201244194326  0.4322220758686827  0.4519762926004717
  0.7879168173064048  0.4247484136262774  0.9401275089556106
  0.7864034167069971  0.9294026367304520  0.4445186799440711
  0.7884074791998044  0.9248813284239794  0.9428862349287370
  0.3635689137376198  0.0668852989440097  0.2198829255769560
  0.3669126879666970  0.0717045334549433  0.7216890404410720
  0.3593319176064148  0.5693364777491779  0.2240825371092686
  0.3656687504554365  0.5778289020903571  0.7267360767949321
  0.8487506351730987  0.0575471976455846  0.2237438389057287
  0.8723408494156664  0.0721402405562746  0.7311335140705546
  0.8718613565920779  0.5703794541093914  0.2174284800222956
  0.8625725682475799  0.5739890734930951  0.7275388098112235
  0.2117976363195229  0.1359559112973237  0.3897776936103269
  0.2023440509307199  0.1326187020011090  0.8797217135845986
  0.2138686665320393  0.6376448576076738  0.3945390980662892
  0.2061904322869821  0.6380548748045698  0.8903218402301774
  0.7059454396241572  0.1366097808812137  0.3930315898448818
  0.7092541940608789  0.1353168561610194  0.8923247273080004
  0.7004772896311570  0.6414867074297567  0.3910774759629436
  0.7035640224791468  0.6320856354969655  0.8956043017807737
  0.4490515895938174  0.2931027664456009  0.0514055172290461
  0.4294608327672367  0.2922848024674893  0.5575183718336240
  0.4244049882021378  0.7928759553592558  0.0598419922080669
  0.4246848632828079  0.7989588324135113  0.5638498916101101
  0.9373971479932753  0.3022533630271722  0.0485273960301148
  0.9260040226006823  0.2843327811319915  0.5626023809128302
  0.9228408480524701  0.7945530186590761  0.0605435070316558
  0.9205717960996987  0.7909991358005942  0.5600550527600636
