Ge Si O 
 1.0000000000000000
     9.8945307225729735    0.0212387392946424    0.0110784996299667
    -4.9288653872276917    8.5632354023087256   -0.0025500286758182
     0.0122584329717596    0.0037801891260635   10.9195661603081646
 Ge  Si  O  
   3  21  48
Direct
  0.0015816640792013  0.2324891998435893  0.1650108724552975
  0.5016214080759557  0.2348580603310410  0.6652152744755693
  0.2321848791261051  0.4973915137071385  0.8350438095365064
 -0.0011311239314203  0.2266975074681058  0.6645521611372276
 -0.0001167860587946  0.7395545318062100  0.1694860772298629
 -0.0016788977650938  0.7372537619572588  0.6693764561167003
  0.5079720121650627  0.2331417739183992  0.1661702358593969
  0.4929311911087356  0.7329976349668009  0.1668215934296484
  0.4994427031911328  0.7359110744625561  0.6652604579234148
  0.2745563844441276  0.2653682316001613  0.0020421563476785
  0.2651940154231562  0.2678895982390112  0.4974789771508432
  0.2612474023657867  0.7684054462969754  0.0011157191297251
  0.2648270369507450  0.7703891181745270  0.5027733744894822
  0.7670817994257221  0.2643391197189456 -0.0052282357973450
  0.7709211092671110  0.2617910442866133  0.4971998811477806
  0.7627892068960593  0.7679763275136521  0.0031054658605222
  0.7642955965608177  0.7632375615033006  0.5001060189470460
  0.2384676979299065  0.0047584231148556  0.3332437497090712
  0.2317974823186270  0.0001206161898571  0.8338795239336551
  0.2306711012358128  0.5034814627848089  0.3357004320960893
  0.7295962491288633 -0.0064877479715910  0.3308629265186996
  0.7334985585683802 -0.0020677577966514  0.8309090036135804
  0.7383450758434708  0.4983508101794618  0.3350497153754000
  0.7353136784863947  0.5036244896967309  0.8356831538683837
  0.0653750310050821  0.3714722734699312  0.2806863714188718
  0.0589914781136541  0.3521380399020062  0.7752654652731472
  0.0776291109733234  0.8718077273192318  0.2742034913458218
  0.0683706926401425  0.8664029645574397  0.7777179190705406
  0.5811305586789827  0.3657237522577343  0.2712928016732341
  0.5696486647821999  0.3733268044378351  0.7807729815675318
  0.5651679665883625  0.8617712649849880  0.2751411773801093
  0.5712035251000158  0.8623577592276036  0.7749925323368820
  0.1481040676955375  0.1999450290615880  0.1125300571474049
  0.1389814615049916  0.2057447727046039  0.6084727649997904
  0.1311993284085195  0.7102861420554082  0.1078870110793243
  0.1338471192631247  0.7122134854712835  0.6096034559129000
  0.6420070301400839  0.2048350722600975  0.1065986439560570
  0.6456094176837129  0.2016878663442915  0.6082661156036565
  0.6280383404578682  0.7078479434152940  0.1068154172716869
  0.6336665589723801  0.7096135910552746  0.6058559860290962
  0.2868158414236822  0.4284442481003065  0.4416674817998071
  0.3012969298845452  0.4315491238473422  0.9537397987446752
  0.2919777532919253  0.9317874889672244  0.4433020152575028
  0.2890173829143775  0.9309891303666739  0.9440502861524056
  0.7955936089099620  0.4232615961581174  0.4405522340229225
  0.7910313845130648  0.4263641164549448  0.9400966224858673
  0.7893941592602203  0.9214575785569564  0.4366834564538497
  0.7905263718064321  0.9284788433885848  0.9412591764870671
  0.3728952337216098  0.0750805653453238  0.2288146011602817
  0.3573684035727879  0.0589867783275860  0.7230959578737222
  0.3588298347180664  0.5723600804587633  0.2266283380554527
  0.3680257310308862  0.5688671438376639  0.7175199814353175
  0.8547724964256669  0.0561192458953424  0.2198104844930971
  0.8626719645664287  0.0648199943806878  0.7220920935596966
  0.8707577753317688  0.5780879004177654  0.2305801955903199
  0.8643928628895936  0.5750938739048792  0.7274790550168688
  0.2082520613811090  0.1388872241503180  0.3893214224143591
  0.2144678743628549  0.1424933421248375  0.8891759633523558
  0.2081191607388045  0.6403843456858878  0.3955107843991735
  0.1992518123906657  0.6419849029163922  0.8911431321553052
  0.7101102763598649  0.1329320366329700  0.3889551657563406
  0.7067572781724484  0.1345037726715997  0.8869847844811695
  0.7069863846944739  0.6284365487294459  0.3969459258869394
  0.7109454402351186  0.6385995281611297  0.8962629542203733
  0.4358665618650155  0.2883843159182984  0.0569957954444761
  0.4325756229444827  0.3015825487896454  0.5475286689433886
  0.4207914761971836  0.7912595594400773  0.0596780596687020
  0.4260646522923405  0.7973944498953983  0.5615445918039602
  0.9347219907803902  0.2972219933451037  0.0441971267300222
  0.9317020984593137  0.2853008329118352  0.5538713852647019
  0.9222776644075086  0.7962963462558817  0.0659079148211016
  0.9253621136116874  0.7939442534450937  0.5616435534456736
