Ge Si O 
 1.0000000000000000
     9.8959580230912660   -0.0000000412410937    0.0000000215541163
    -4.9479790472614651    8.5701510330753887   -0.0000000192471286
     0.0000000247742807   -0.0000000112537568   10.9255535141414466
 Ge  Si  O  
   3  21  48
Direct
  0.0024212435776322  0.2321692938525912  0.1676974287419718
  0.2678307986903433  0.2702519206910181  0.5010307469969967
  0.2297479515531710  0.4975787677031028  0.8343640945567544
 -0.0068861962966223  0.2241385643691567  0.6694263388051116
 -0.0012536324536613  0.7365090782131655  0.1673795566588542
  0.0028391823843105  0.7425783656994163  0.6690379165921523
  0.5079499843958043  0.2347546629158808  0.1664093929964351
  0.5080489975296680  0.2361873354656043  0.6650297077426955
  0.4913211747369116  0.7320384133168665  0.1654773778169167
  0.4956584705745702  0.7329069266517378  0.6632278742393504
  0.2758615649948807  0.2689751159806494  0.0027596386836942
  0.2638126343711760  0.7718618725062626 -0.0016369779438372
  0.2652451575939277  0.7731953491078748  0.4997426783573100
  0.7670929987642111  0.2627515845835632 -0.0034386662569054
  0.7679615158730694  0.2592828970088110  0.4988108436615894
  0.7574217190319867  0.7602607824232580  0.0023711535123791
  0.7634910161828163  0.7622371654132051  0.5007127916490920
  0.2372485088000085  0.0043416515546715  0.3298946359933290
  0.2407171583632607  0.0086786247581064  0.8321439495509759
  0.2310249121304173  0.5068863839511771  0.3360931968302946
  0.7281382753495999 -0.0080490516171409  0.3316964736978643
  0.7268047004918459 -0.0079500079932784  0.8330759350091321
  0.7397390929936924  0.4971608272309970  0.3357045197561566
  0.7377627687172255  0.5012535630852282  0.8340459691600337
  0.0658279886412205  0.3669436901083030  0.2866671816456187
  0.0528527105577501  0.3510203511268895  0.7793451455922997
  0.0764770872186629  0.8689231591629433  0.2719085784873925
  0.0785189516780476  0.8758830518401366  0.7735399715174283
  0.5798193216780737  0.3646806576425518  0.2737467813449437
  0.5802258134162271  0.3680424241561787  0.7704814173847913
  0.5641939584742367  0.8599309278671862  0.2744585673316511
  0.5646853188695411  0.8573359261337375  0.7749782112700664
  0.1489796721477466  0.2018323890125335  0.1126784568990143
  0.1330564841152564  0.1988843869441583  0.6200003567524012
  0.1319574678144234  0.7121833126829611  0.1038147733335822
  0.1353192645354529  0.7151386050064958  0.6070801886736512
  0.6426639385543214  0.2073494793388580  0.1083115268093104
  0.6400689795188900  0.2042630509299272  0.6077919410026578
  0.6241169370614197  0.7026358199438683  0.1068733852408811
  0.6310769998592446  0.7075539030583744  0.6052418598239904
  0.2981675561707567  0.4471470171990882  0.4460118235727559
  0.3011156991825936  0.4341721471926497  0.9533338505407817
  0.2926505025423250  0.9353144949431359  0.4416447102696662
  0.2957368955161626  0.9358060840494196  0.9411251500825564
  0.7973641537432459  0.4214810549337549  0.4402065825797656
  0.7924461123354658  0.4235231050066083  0.9385752034659290
  0.7878166680788815  0.9197740630109150  0.4371481829405215
  0.7848614609235420  0.9201808660302938  0.9404135746890534
  0.3714616719436157  0.0744447916354130  0.2254064143416909
  0.3707604711584720  0.0774366765138161  0.7246878159050085
  0.3540659323904162  0.5719706514783222  0.2236845156859606
  0.3623262947021861  0.5651014803964908  0.7141280147219994
  0.8539042614299580  0.0557962576729760  0.2212167053829264
  0.8555862301615716  0.0617863552302055  0.7246344303945687
  0.8708381763208394  0.5748392579986372  0.2297832220904224
  0.8722173969309184  0.5819989672298581  0.7309808560318377
  0.2027753063758266  0.1376737557068516  0.3807947606970236
  0.2179047672897621  0.1459338176986202  0.8903511418966817
  0.2062001668366421  0.6444139429331224  0.3913011583373061
  0.2018921362517671  0.6460957165379516  0.8878834872127601
  0.7066761110422456  0.1292397140903405  0.3913544240633397
  0.7029830855791125  0.1285383093400645  0.8920730874670150
  0.7097814894936137  0.6277826700526795  0.3976474940485728
  0.7040010260849765  0.6291616072479789  0.8964498106086261
  0.4382137461768374  0.2937998404810024  0.0579678928924646
  0.4442034974485677  0.2981078382297274  0.5545501566212281
  0.4225634228625710  0.7933238861218519  0.0580209947861014
  0.4255551637203456  0.7970169567048894  0.5587396421053490
  0.9348984989353301  0.2972247965666229  0.0474612671106020
  0.9280292211165627  0.2820952245132249  0.5570178356153316
  0.9180012846665210  0.7902185505899053  0.0643142253971717
  0.9251607000962564  0.7959988808339346  0.5631166485229269
