Ge Si O 
 1.0000000000000000
     9.9235154094215776    0.0122712506724361    0.0026806658021064
    -4.9511359946905600    8.5435015646272650    0.0038579452300195
     0.0029566578053249    0.0066668635330438   10.9149514857691550
 Ge  Si  O  
   3  21  48
Direct
  0.0054142346713037  0.2332849793510247  0.1668959927134185
 -0.0008213186371661  0.7362674898568965  0.6655363300765043
  0.7664053326899898  0.2678914053219890 -0.0020744073409112
  0.0000517122021358  0.2344186356888953  0.6667832643876094
 -0.0032432985369206  0.7351093801068893  0.1648068016965346
  0.5030956864353544  0.2339379263500707  0.1698631123531570
  0.4980393795073518  0.2329948516101456  0.6676731700779599
  0.4954422001050728  0.7329462380206864  0.1672478847787668
  0.5014488062423350  0.7317254497942256  0.6657764023332885
  0.2772769578212424  0.2688446438067391  0.0016446202243698
  0.2645358276167069  0.2636586098701797  0.5003301577415132
  0.2614621723712452  0.7618803271349509 -0.0008927251610424
  0.2709472548529939  0.7673621669367348  0.5004791418180921
  0.7651284825406345  0.2666147549953252  0.5008607402524815
  0.7615166415772824  0.7683573053177870 -0.0004136096457455
  0.7623150799062497  0.7653436715334444  0.4969402434269408
  0.2333573310862923 -0.0009387616683468  0.3334102138393237
  0.2388482980362521  0.0015683309545116  0.8348233384103212
  0.2386085420222790  0.5006283309832672  0.3364504318367148
  0.2366458947440554  0.4980647471240052  0.8341819490738327
  0.7269544475934868 -0.0017189662679151  0.3322956500585433
  0.7348434209392214 -0.0003927036028756  0.8307281832759563
  0.7362181674598366  0.5004640251310918  0.3337684360071890
  0.7252176695416686  0.5023504879578027  0.8328268511830392
  0.0713508577816496  0.3670224258985050  0.2862483518911486
  0.0763283423275292  0.3639772142098665  0.7742062379631580
  0.0740950013409477  0.8659434338334773  0.2714822610008468
  0.0703349108662878  0.8722535382341934  0.7831593065467340
  0.5749613220460855  0.3649712259790660  0.2764759582322104
  0.5651756136025721  0.3620327719094281  0.7767404201961263
  0.5647244583653634  0.8638003517788601  0.2745363041400967
  0.5765255875645995  0.8613512554519062  0.7726805531598244
  0.1526025965144873  0.2032939377155213  0.1133822674585849
  0.1318821031515643  0.2067723604308970  0.6049307822751311
  0.1271599151980998  0.7055053961952603  0.1023441257288819
  0.1429070808103155  0.7030460826409125  0.6094918110480029
  0.6351492799706653  0.1976225650719024  0.1191363500071373
  0.6334471883758344  0.2100751599252409  0.6067241752418562
  0.6301401362667294  0.7090784372739448  0.1058911917316933
  0.6339429973633118  0.7026165314535314  0.6058061562336988
  0.2981547748595394  0.4281767316012549  0.4422572213358918
  0.2954209343520766  0.4274441203536783  0.9428206738608796
  0.2905129638496260  0.9261538630540312  0.4413027698212538
  0.2952955715561382  0.9256740847540758  0.9398805811628352
  0.7954341167301457  0.4295085940406601  0.4412262372998202
  0.7878356771922530  0.4425337217383959  0.9454757528050239
  0.7822135605523691  0.9246332306836974  0.4398668991543909
  0.7916414151466764  0.9328635144106535  0.9431011498643083
  0.3648142797251451  0.0743389249665734  0.2276550244899662
  0.3655382586193922  0.0686643537135689  0.7249248749815380
  0.3645091547264174  0.5688837318387386  0.2260081489678413
  0.3666312207137242  0.5715737722151354  0.7265065720821744
  0.8531883935239430  0.0596872512194798  0.2217638515191612
  0.8681630440721222  0.0716336193874719  0.7260801572263440
  0.8656890676431084  0.5734576997340179  0.2263109369224247
  0.8500977324161986  0.5617464683430407  0.7216412891167827
  0.2058269945866793  0.1328730841384549  0.3933607085583075
  0.2199152904636701  0.1405908734341966  0.8934575521027500
  0.2160271901524725  0.6384228501730931  0.3929902899920188
  0.2072622121566055  0.6315289536740616  0.8922294977861726
  0.7080682606485946  0.1372878910779382  0.3923222344849470
  0.6979116428176003  0.1321493756904109  0.8797627058815561
  0.7065804473992717  0.6339981920716640  0.3908160708805744
  0.7036574474164743  0.6423801844550486  0.8881576325667715
  0.4398073396957160  0.2963210279835594  0.0585511283850871
  0.4234214417686604  0.2889106637090487  0.5611150110847138
  0.4197700573545918  0.7882877551269248  0.0615505162945342
  0.4319381388839078  0.7943743217633288  0.5595262115572189
  0.9494253193311508  0.3071277407664334  0.0446679185969476
  0.9240169531820818  0.2921960951296456  0.5625684958167878
  0.9200848051633886  0.7919195808604446  0.0603725948622051
  0.9307099789635845  0.8046317135793725  0.5485508642617798
