Ge Si O 
 1.0000000000000000
     9.9209700307256288    0.0097370543014758    0.0034757794581752
    -4.9520692613340920    8.5443057591228424   -0.0033555587942131
     0.0038294566829338   -0.0020203494679881   10.9223253877783542
 Ge  Si  O  
   3  21  48
Direct
  0.0038730792213735  0.2310979429295419  0.1686211268483399
  0.5102389508920395  0.2319207730088273  0.1657252889892693
  0.2757192485735651  0.2713096050256180 -0.0034548424816520
  0.0029850238146726  0.2347386930300212  0.6664965811387997
 -0.0058594924009741  0.7347066256855731  0.1685703659177190
 -0.0037020355325836  0.7332124532861752  0.6670639197527701
  0.5010299730873138  0.2328206108271155  0.6656453904386811
  0.4910192249980651  0.7331093521510728  0.1660240478722372
  0.4977214908259546  0.7384235570700880  0.6665860695520432
  0.2685087583727611  0.2668902722447748  0.4987170320776093
  0.2588473969554182  0.7683641335541944 -0.0001244760149505
  0.2630789775396672  0.7676505433051168  0.5010477851332591
  0.7768981268634368  0.2669400756529522 -0.0027049954178803
  0.7667458165142120  0.2637796525924181  0.4996619518187084
  0.7577572629324510  0.7615704749578701  0.0012249375363950
  0.7610319738198286  0.7644954399692878  0.5021959258221328
  0.2323311994714881 -0.0008839429462617  0.3316506497381625
  0.2356356763759069  0.0006619755790508  0.8293827545828136
  0.2354243784791317  0.5009086498318351  0.3364404675429328
  0.2317824534187680  0.5065367174223758  0.8332457600198295
  0.7274887008456642 -0.0052933348752175  0.3328553705529645
  0.7392366688753841  0.0006125262690420  0.8319308738416415
  0.7377955535825196  0.4999523608724353  0.3380473244012441
  0.7331922320290799  0.4972236497250775  0.8350633169265170
  0.0673296953583514  0.3666035043973078  0.2871752380205350
  0.0753336800309890  0.3672843104794751  0.7724629415263951
  0.0684020656793822  0.8649724168408380  0.2759316906849356
  0.0750059263227466  0.8637063713833822  0.7730665293673008
  0.5724290020899671  0.3648814288076248  0.2857616388334742
  0.5742511459091451  0.3628993561959388  0.7731596379871154
  0.5641837234920252  0.8607203290973974  0.2757357433873385
  0.5775078353504494  0.8700977199601623  0.7718923004954162
  0.1515696475863297  0.1965275780159916  0.1222702262107726
  0.1358872050310235  0.2092137057203064  0.6037675605832148
  0.1265662161673743  0.7092459080799070  0.1049585912405152
  0.1272006866179362  0.7050182507111471  0.6036124995523015
  0.6593825682015291  0.2031622077235460  0.1137977715781457
  0.6338710584816285  0.2059611154984052  0.6044723584624671
  0.6233742595441295  0.7059774331602438  0.1042603774252022
  0.6261996021834236  0.7049959261999847  0.6053038538244158
  0.2992311916564537  0.4305117701334982  0.4407199389618597
  0.2941661990235317  0.4451227949767170  0.9450582242030958
  0.2883765738963991  0.9277480027188250  0.4408741731118705
  0.2903806970029874  0.9326767738028895  0.9421248631330228
  0.7992855986251017  0.4285251753092570  0.4430525515652620
  0.7921737261363129  0.4251439906763466  0.9415228953056625
  0.7853092349257629  0.9238577849878206  0.4412100096483947
  0.7908805571508803  0.9239030989951732  0.9396359865685240
  0.3581643546394955  0.0580673356266608  0.2209057571322956
  0.3686476712072645  0.0694725757298368  0.7241963899732314
  0.3580313755631798  0.5695440264726104  0.2239482689479040
  0.3629116034340990  0.5791888937188592  0.7271136636159050
  0.8529938016855166  0.0557781048206512  0.2223288461945243
  0.8727277861343705  0.0723923775758618  0.7274380789600805
  0.8639727713720576  0.5713967148272570  0.2282872609085647
  0.8639557491132770  0.5726289887336706  0.7283831312549788
  0.2124873870088644  0.1385768017105884  0.3896841920163101
  0.2039210662810208  0.1371641126525413  0.8771108130315209
  0.2122984734336658  0.6376626165975776  0.3946742221595196
  0.2020520186847946  0.6407775367510963  0.8899567472235743
  0.7083984779290251  0.1348312401397436  0.3908398892760960
  0.7140236179250263  0.1366338667826585  0.8898354980577622
  0.7101186446056631  0.6339011275947501  0.3962845738730899
  0.7040195802656772  0.6297563065762780  0.8952757512996968
  0.4584567298547859  0.3065037985338554  0.0411467397579266
  0.4266185849033367  0.2911267944826187  0.5607168036065365
  0.4174805851771347  0.7928900981948441  0.0614216961183479
  0.4238103961047137  0.7991658099925211  0.5631711934447979
  0.9457886613256111  0.3007123538570673  0.0446766305458334
  0.9249274608124510  0.2880513949461353  0.5610261948835197
  0.9165021152597843  0.7903958109127289  0.0648295980958399
  0.9206123512577890  0.7938755517244609  0.5650078313529282
