Ge Si O 
 1.0000000000000000
     9.8962575810156022   -0.0010899782320983   -0.0009887858379599
    -4.9490726075951574    8.5699965801620390    0.0011679600909025
    -0.0010879393718271    0.0008537016759827   10.9215469420443529
 Ge  Si  O  
   3  21  48
Direct
  0.0025378171026825  0.2348935672601618  0.1678114674941789
  0.2695406295974511  0.2661012158432618  0.4977587519213532
  0.7333068318414570  0.4965565964142798  0.3355191188992929
  0.0019854597785812  0.2299786266483604  0.6706255348421960
 -0.0017547928940357  0.7327252596457846  0.1628533022735287
 -0.0023767528929530  0.7379796031624144  0.6660749099553965
  0.4989288191576300  0.2284421539372772  0.1651028075382425
  0.5076546856618813  0.2342358101918179  0.6652878345713613
  0.4968383206023444  0.7358175994169065  0.1682501771072981
  0.4964224784706356  0.7370048944399742  0.6674873051738248
  0.2722720955010055  0.2651819215635371 -0.0020506466271702
  0.2665870924203340  0.7660175145204134 -0.0025061873810949
  0.2635544698420090  0.7710185097222051  0.4999523502038773
  0.7655074431437642  0.2669632365193144 -0.0005104219391647
  0.7714762646917267  0.2631486755254355  0.5035431801088328
  0.7596989627767764  0.7630870034581547  0.0019792997609385
  0.7606710424055719  0.7676544496296690  0.5015171821034085
  0.2322282717358665 -0.0026958946303986  0.3273549275407965
  0.2382698593012911  0.0017057333202264  0.8293103164309271
  0.2358911075155801  0.5070106086627264  0.3364828224973104
  0.2362432951979933  0.4982147329807176  0.8340993845913640
  0.7303240085832676 -0.0013566572853189  0.3346626948795440
  0.7314936754975075 -0.0008645448294181  0.8356368453877274
  0.7331413646759842  0.5013780103029458  0.8339931705838176
  0.0703048075842050  0.3684514416796842  0.2871449104863415
  0.0752162463712085  0.3638504519798264  0.7750693703069949
  0.0702277805863167  0.8591243036023881  0.2724944887795728
  0.0753352109538827  0.8711997248634707  0.7704074197258931
  0.5572110163391094  0.3508257686915926  0.2781686876013902
  0.5754245272997395  0.3665308533725033  0.7710560968159713
  0.5674207729095074  0.8640375909006063  0.2773239741029623
  0.5705212283022895  0.8668912549698913  0.7748577001749857
  0.1462955691395014  0.2037459038386784  0.1083186663460396
  0.1350765328041817  0.1966360484340255  0.6171402716943380
  0.1339592890782958  0.7106612582646835  0.1017573327543367
  0.1298257467733401  0.7102957992263019  0.6042989005915248
  0.6402082737131559  0.2091188014505545  0.1107413724947647
  0.6427230350012958  0.2037386096536269  0.6123656479821803
  0.6302053100302614  0.7068643391037666  0.1096837742564617
  0.6298977519348190  0.7097600708557734  0.6078550737486954
  0.3017556249546011  0.4450609287844853  0.4458003187428601
  0.2962914108459333  0.4257705281796750  0.9398375536706919
  0.2909012114533541  0.9323217461191851  0.4399157108416553
  0.2953454627831089  0.9254306174051354  0.9338781961421616
  0.8037841874330490  0.4302737779946929  0.4527774467499429
  0.7884344006607875  0.4261402823413316  0.9402044695156940
  0.7883401394940985  0.9298135272589025  0.4442386255589875
  0.7861858284441988  0.9239099656809844  0.9427177549526656
  0.3615963481838002  0.0641763745541613  0.2187575134370071
  0.3686289939327338  0.0746723487333103  0.7222941455771107
  0.3600609560113933  0.5740134421961707  0.2248924921685429
  0.3651383131774456  0.5740334219367297  0.7263168707127297
  0.8559545796823147  0.0589999807095130  0.2240060960348224
  0.8651641022124269  0.0717738635674990  0.7312891379319626
  0.8675934424368479  0.5656700435327455  0.2165497368857326
  0.8666013882313961  0.5790226163156903  0.7297256785915857
  0.2006255682886131  0.1329726601344434  0.3777304260205954
  0.2132078189634962  0.1356648122089088  0.8905365750894686
  0.2096535813552492  0.6432667163002137  0.3915562560492506
  0.2092569770728572  0.6316157915954699  0.8940497628862105
  0.7104417636032132  0.1385039152937867  0.3917061632272529
  0.7044325794515017  0.1333007100244895  0.8947524969006492
  0.7005511764275143  0.6408597974931890  0.3917769339398967
  0.7017292843962580  0.6317474712185889  0.8953611456958110
  0.4340136471134490  0.2905834904291965  0.0551139128726446
  0.4463342404279911  0.2946455390763533  0.5517760144145007
  0.4268691147651828  0.7954138306271341  0.0602960677144021
  0.4224382573345193  0.7965773102586607  0.5627978808920265
  0.9333226149170751  0.3025784639244708  0.0507361446950005
  0.9318928286808061  0.2848788442443895  0.5598632877242012
  0.9221713891294634  0.7917512731768481  0.0596037589818550
  0.9209872195988823  0.7926250613744305  0.5602216095983689
