Ge Si O 
 1.0000000000000000
     9.8928848690389426    0.0275012606021768    0.0019904928814317
    -4.9226193535866525    8.5655381487839328    0.0027191848329286
     0.0022431068910805    0.0046943414861774   10.9171112981919922
 Ge  Si  O  
   3  21  48
Direct
 -0.0038873654809698  0.2256653985379812  0.1651090433372373
  0.5039076956955090  0.2309690567179557  0.6662640660868032
  0.2294204313399431  0.5036792934473103  0.3356338385323127
  0.0055327939412966  0.2336137692281508  0.6652950350766335
  0.0023868895147650  0.7403926279068370  0.1700555563675170
 -0.0041906979130350  0.7365981160677919  0.6692315269138946
  0.5061015189063122  0.2361738564672820  0.1647894532464528
  0.4960039505077039  0.7328625858434098  0.1645691562531106
  0.4967350389692296  0.7362824121966897  0.6671143023728729
  0.2721634470811918  0.2658059510886603 -0.0008457332155325
  0.2678531826779824  0.2680889578624590  0.4997919170030297
  0.2601456373164098  0.7615089235444001  0.0014363901482251
  0.2647759949493579  0.7769017747362436  0.5027729631189092
  0.7645785308984731  0.2640598706975401 -0.0047520462764192
  0.7733594387671362  0.2615411399815176  0.4967129008892252
  0.7674570968243415  0.7706685027688127  0.0015854966303557
  0.7578299151998635  0.7588281655434617  0.5015539749818511
  0.2390548072455093  0.0094319605394926  0.3332052986153315
  0.2310266333773051 -0.0039096782984207  0.8335407226048599
  0.2333791716394356  0.4985253500919631  0.8349847665905505
  0.7270182828552648 -0.0102000832827657  0.3311103803955318
  0.7369315381347902  0.0023808247997831  0.8307755702790418
  0.7382181337884280  0.4984738591190881  0.3350486955966018
  0.7354837375075625  0.5034673774093099  0.8356702105792725
  0.0491987104670862  0.3579642982392857  0.2853524706312044
  0.0762960958271453  0.3657403525145163  0.7709224301222115
  0.0797320110806984  0.8738898639159720  0.2740593297230062
  0.0663008330576501  0.8661807762318015  0.7769315821918966
  0.5813954809848555  0.3678249498546847  0.2699777919672312
  0.5706401289143369  0.3716832531413676  0.7804852532611491
  0.5618405537625832  0.8574314402553315  0.2762849540650845
  0.5769759580841742  0.8687208028303660  0.7714696709274960
  0.1473149485582189  0.2022921268913806  0.1106436797190405
  0.1405419129162805  0.2039612915656882  0.6097137001151547
  0.1322745868526405  0.7072748530732447  0.1097786720166343
  0.1330558859392184  0.7156541728569139  0.6087550358491340
  0.6378297635124089  0.2045677353279493  0.1053194677665865
  0.6494115173305769  0.2002288787893229  0.6089454283400385
  0.6343535589002535  0.7123285963893270  0.1060677544806635
  0.6253034134279961  0.7022811671255932  0.6060732301795742
  0.2966274976689296  0.4359710565611152  0.4542211648071776
  0.2917854784259947  0.4246545107491242  0.9409741172267436
  0.2943444502225804  0.9410070886481031  0.4460907900420050
  0.2850814508653983  0.9211335854844833  0.9412445618888289
  0.7948299711877964  0.4218471031143769  0.4400106025813162
  0.7910999045427296  0.4274647023311420  0.9414547834475885
  0.7841212121161252  0.9178487698508286  0.4390375112250202
  0.7938998309043562  0.9310742371244602  0.9401222448881461
  0.3716305998453393  0.0784050180653795  0.2276330844875885
  0.3590503446734348  0.0558587708727693  0.7245866635781164
  0.3629926446756020  0.5655282696517953  0.2159153049245101
  0.3651527083679748  0.5780810734512688  0.7301855087237535
  0.8506273930587096  0.0474666920885904  0.2187667816198444
  0.8699396917157574  0.0747972978395241  0.7257738470832080
  0.8717455869667159  0.5805484724954799  0.2319032050424118
  0.8648381805153263  0.5734822679051756  0.7277374385620365
  0.2085473837379351  0.1448474877042589  0.3870759516547629
  0.2142876032394993  0.1374261395482369  0.8906118727313975
  0.2047134297095715  0.6542282806238844  0.3900811672404397
  0.2006719392957566  0.6278531514213921  0.8971202065289710
  0.7122405007182838  0.1323593612209499  0.3885050702818590
  0.7046401859234684  0.1353391067289660  0.8867989365381029
  0.7035970122647522  0.6258632229611325  0.3975964681227396
  0.7129497074439252  0.6404027923396657  0.8949030019127169
  0.4347671536329977  0.2937935715913079  0.0561762514287707
  0.4336203298671735  0.2947779366616742  0.5475088308841666
  0.4235184267715903  0.7924514700704062  0.0585678957871709
  0.4226684270001993  0.7955622708539072  0.5618903009154194
  0.9301981353921858  0.2924849219927672  0.0449830722771068
  0.9360262528412056  0.2891826333199145  0.5537740644853281
  0.9267665470994121  0.7968549460980597  0.0639442161556202
  0.9192688559470932  0.7915692186095095  0.5633711454399588
