Ge Si O 
 1.0000000000000000
     9.8933747205965741    0.0290004602608058    0.0071457899529426
    -4.9215617462469785    8.5618977469962196   -0.0000083587015219
     0.0079269420297632    0.0044986413791834   10.9162960892988306
 Ge  Si  O  
   3  21  48
Direct
  0.0021122037750969  0.2351890453326191  0.1666966236429873
  0.5022771439791487  0.2318218383153476  0.6624540393767769
  0.2278338820692069 -0.0046368344334855  0.8323793335894342
  0.0089021138045153  0.2375114775772526  0.6671660712809185
 -0.0011427003808644  0.7360035684806323  0.1677197472365233
 -0.0108410939123731  0.7271805237675456  0.6674597912651546
  0.5032786246151466  0.2332716028556266  0.1644898455381777
  0.4976430448101326  0.7328438817388918  0.1688192369316051
  0.4991522489298409  0.7383435245965900  0.6674537330829302
  0.2742819374090870  0.2721898311059051 -0.0007715905146554
  0.2667509178275603  0.2672271088816368  0.4968090067787736
  0.2617662919257116  0.7623145105845321  0.0041040514837765
  0.2625871113879861  0.7701608204957036  0.5033717890429429
  0.7641993524759247  0.2646914092602040 -0.0032242087422524
  0.7769697061148945  0.2664955903995469  0.4980435859556430
  0.7642454659818467  0.7666545592942450  0.0008789713657984
  0.7578735471123851  0.7582357909453966  0.4994371337568912
  0.2350235668118366  0.0032187560739532  0.3318040907689296
  0.2335439826028107  0.5046634131297402  0.3368937045180633
  0.2370390335547873  0.5037474044570343  0.8362233887608286
  0.7331709928133944 -0.0049315878133174  0.3323578342670428
  0.7399410398477425  0.0034584516516663  0.8317617428587782
  0.7351376089276039  0.4970145727644701  0.3336671770710402
  0.7288177427366067  0.4986192711875009  0.8345287520946245
  0.0677215440178389  0.3742424047733978  0.2820945252362839
  0.0802563348573629  0.3689581627202854  0.7733432987701189
  0.0752573919847427  0.8694815240915222  0.2718599816726647
  0.0489537225686007  0.8510399426465607  0.7796746854725236
  0.5776357766884160  0.3639366077405234  0.2708859618186065
  0.5624385618709719  0.3657222893009209  0.7818875086985659
  0.5693745445977881  0.8641054758019884  0.2753723535052164
  0.5805873520150255  0.8712161556710728  0.7709899212952520
  0.1507363596654701  0.2083617496740724  0.1114216367811455
  0.1432656191620112  0.2081446630287049  0.6094531627639125
  0.1295942453318690  0.7027738658058872  0.1094304162700077
  0.1297035146196431  0.7096768347325025  0.6089697936548546
  0.6364767657846935  0.2029442775017855  0.1062351791925300
  0.6523264092350115  0.2057895425625959  0.6092892532459356
  0.6329014767440476  0.7085328639365509  0.1076046671540026
  0.6260123108430461  0.7031455970960551  0.6045048230313553
  0.2886172149385721  0.4288539061026442  0.4431000209676347
  0.2960752232198713  0.4344452328137885  0.9455969347400492
  0.2892536151291709  0.9304449900282842  0.4417788007468869
  0.2944501710194918  0.9289351655958932  0.9522058656674965
  0.7961236512158184  0.4251325134997298  0.4393546812363859
  0.7868003623550444  0.4258179745932760  0.9410881698622428
  0.7877865161004863  0.9198031315859910  0.4393756074535590
  0.7928522391539569  0.9285885236830805  0.9410131724839698
  0.3678348681977631  0.0753768380023789  0.2264457252647862
  0.3580547051151957  0.0493166878542983  0.7106220042408743
  0.3641747101301993  0.5725870028771042  0.2296293748068666
  0.3686714859089147  0.5795855651849964  0.7308657963054858
  0.8599905688973473  0.0570162970333718  0.2224827178146199
  0.8743903813785461  0.0778816054544279  0.7278374616808114
  0.8667177848522422  0.5763302868747899  0.2286702828897575
  0.8547099635403042  0.5635672072626803  0.7234782272515434
  0.2049080931609171  0.1372172416645435  0.3890741997338883
  0.2093203798327459  0.1498271946008816  0.8862382503903581
  0.2098259770153309  0.6411465540105092  0.3957459370878879
  0.2046578344674780  0.6355638767083041  0.8943501984066959
  0.7174212773519366  0.1366607085883533  0.3904450877538524
  0.7077131889828472  0.1357473715105909  0.8889156408517078
  0.7009928752603571  0.6260644250427467  0.3942915187678257
  0.7078673971137490  0.6370090549790921  0.8933532607069347
  0.4346776518908385  0.2925233956632856  0.0547101997497879
  0.4350751733920646  0.2997598826674621  0.5438498423197217
  0.4221057755481239  0.7874076495779304  0.0621939521045540
  0.4225664921565129  0.7970102000142985  0.5643027934980954
  0.9312134551534588  0.2990684865330515  0.0482096976260040
  0.9388383663067010  0.2939200210510921  0.5564366351632275
  0.9246108536039432  0.7926772311340132  0.0609599317504838
  0.9178960524015788  0.7853532900702220  0.5598369906998570
