Ge Si O 
 1.0000000000000000
     9.8952900511714930    0.0016365419917173   -0.0074745876804999
    -4.9462292114558863    8.5731791488141269    0.0048282208259988
    -0.0082305681294068    0.0013814712228199   10.9186221029520265
 Ge  Si  O  
   3  21  48
Direct
  0.0051120418206617  0.2310075145690778  0.1688017859314751
  0.2663656867496294  0.2658252049568534  0.4984129830675709
  0.7321356078747641  0.5016266810568140  0.8337774712675460
 -0.0005503506499168  0.2330477718593950  0.6695378704976415
 -0.0043526463643936  0.7327482564062517  0.1649621357108492
  0.0007168419442980  0.7384460842432192  0.6638693887769909
  0.5057506315621713  0.2356641887525514  0.1653791439119493
  0.5013561370788118  0.2269107549305948  0.6650530266667357
  0.4944975774647659  0.7357377640328576  0.1681741862298575
  0.4988307230162864  0.7369344000023503  0.6679269141276146
  0.2751604468431963  0.2653911529173241 -0.0027190945185696
  0.2605636840670311  0.7621083965817701 -0.0012107829408108
  0.2690133831577151  0.7742080068427704  0.4986052169690056
  0.7680371754181420  0.2665289499124210  0.0015170988449692
  0.7686619203694868  0.2635979865552053  0.5011643932967076
  0.7599966026836376  0.7697267372239099  0.0022016882266942
  0.7601758332590970  0.7613100972433818  0.5018114523768697
  0.2361132508223855  0.0017780824925729  0.3270900672162946
  0.2352085276939977 -0.0021913478429310  0.8295037178914683
  0.2359197620953300  0.5069628866526190  0.3365262212351693
  0.2361120772348000  0.4982433581401342  0.8340036776945240
  0.7296917448098938 -0.0049483564429511  0.3346082220829019
  0.7316230573541931  0.0029424048008948  0.8357199266963475
  0.7343419937327045  0.4975278345717143  0.3356359484102585
  0.0711980276653560  0.3672140982819098  0.2866975418517347
  0.0748238839861497  0.3653762174393713  0.7745685206518591
  0.0761434067140832  0.8651641027496353  0.2692875992711861
  0.0705610090200628  0.8663349309458847  0.7728090205069228
  0.5742237492239518  0.3648432461528994  0.2735378370280072
  0.5591588629841615  0.3524475561147761  0.7757745574904882
  0.5654261181447182  0.8643578643697037  0.2766744332774228
  0.5722822891113903  0.8670560197202327  0.7753620038246938
  0.1508844135644257  0.2028256905190748  0.1091685958683025
  0.1299641780394548  0.1962841024864301  0.6157997544250735
  0.1259074204801745  0.7033160685476525  0.1018588248974401
  0.1374054249817170  0.7168781389960888  0.6040439162203157
  0.6420704372205643  0.2075043491937168  0.1120388850182131
  0.6411345252178080  0.2050163547940767  0.6109147930925908
  0.6296648095141539  0.7107654795507343  0.1090556517909984
  0.6310059968919569  0.7061338178384475  0.6094356166595049
  0.3016465391518754  0.4459068288005750  0.4468010604886488
  0.2958995163868438  0.4248531382443372  0.9393525096658976
  0.2957745869924778  0.9351285769871890  0.4380244427072472
  0.2901641614485062  0.9222275497177280  0.9361982967455883
  0.7925784127494255  0.4231261151539566  0.4410738125985599
  0.7986292688469198  0.4333184591686135  0.9520538819749139
  0.7842028933037092  0.9203419160002703  0.4418015818670016
  0.7893061813878677  0.9333507109428747  0.9457029431084181
  0.3684316645983100  0.0742885864206997  0.2216081118402096
  0.3630155931727908  0.0647488927063579  0.7199991879234074
  0.3603701219488132  0.5729551840794618  0.2251716409166808
  0.3653769750391017  0.5751379317660511  0.7266657204301993
  0.8580043375319467  0.0560319413341464  0.2258778545941527
  0.8628239585140556  0.0747190250320874  0.7297119326077215
  0.8648596876594286  0.5742495469418445  0.2292013544992262
  0.8702366530607322  0.5716171189593636  0.7177482741778927
  0.1991036020603685  0.1335170853007933  0.3780124349620127
  0.2158703360400527  0.1358478867418007  0.8897030700269632
  0.2113709083531350  0.6446854871369868  0.3909574736556339
  0.2069088997013467  0.6298457810079452  0.8943144333379672
  0.7104923674087464  0.1339438365907416  0.3933892500042852
  0.7037512801239908  0.1381674541221091  0.8923675429539372
  0.7036240270778618  0.6280054252342436  0.3973515868849578
  0.6983039746994636  0.6451674016886686  0.8904226783048058
  0.4390513077086739  0.2948443132314270  0.0541668616018566
  0.4408847425519583  0.2894307097092301  0.5524469430221499
  0.4212899728860800  0.7938193169005560  0.0619693174217987
  0.4275078064921135  0.7971560447773568  0.5609666690128940
  0.9341973806832016  0.2948419760303081  0.0503780525650065
  0.9306882152308170  0.2913160427825657  0.5596338627073461
  0.9188512471734276  0.7896739682002765  0.0603791001744216
  0.9244471172138908  0.7950829001257662  0.5591679056715531
