Ge Si O 
 1.0000000000000000
     9.9150393469576965    0.0332721665075029    0.0116965888924225
    -4.9287051287160137    8.5367676304964188   -0.0000000185297810
     0.0128969891407606    0.0074460527438524   10.9228968206297754
 Ge  Si  O  
   3  21  48
Direct
  0.0045952928351414  0.2357115315285537  0.1653644170792761
 -0.0045952875942182  0.7311162419515320  0.1679689204261317
  0.5000000013210282  0.2301138362337906  0.1666666658098819
  0.0009074486599565  0.2360717631331485  0.6654509418052530
 -0.0009074643993267  0.7351643053659261  0.6678824001586613
  0.4999999923325544  0.2332050767802094  0.6666666684170888
  0.4999999995524666  0.7346630989302818  0.1666666734818843
  0.4999999895989654  0.7368570220862422  0.6666666726706462
  0.2709013002977121  0.2664172331583990 -0.0038380716562651
  0.2674383215262363  0.2682933919089213  0.4995033097963915
  0.2674806950560065  0.7649015933685621  0.0007364029676107
  0.2644883961168920  0.7676858804952629  0.5017120107083202
  0.7693630472407266  0.2677850290254845 -0.0025521125021334
  0.7634408236708060  0.2627218832546090  0.4995926458873454
  0.7614312942040383  0.7658337270272398 -0.0017390086506689
  0.7647966913902976  0.7661429724319225  0.5011466865658130
  0.2306369680827711 -0.0015780080135368  0.3358854493553165
  0.2365591746480983 -0.0007189389584567  0.8337406937247654
  0.2385687138964145  0.5044024306785136  0.3350723476460373
  0.2352033051696045  0.5013462790643520  0.8321866515735272
  0.7325193194602108 -0.0025790934558267  0.3325969309900688
  0.7355116032183525  0.0031974858575450  0.8316213210446530
  0.7290987076164563  0.4955159324338919  0.3371714104703999
  0.7325616724353683  0.5008550658987495  0.8338300314859084
  0.0722921698853034  0.3718834237234157  0.2829338322825859
  0.0764423099439650  0.3702696167172934  0.7693410998922308
  0.0621396498535566  0.8638445663885741  0.2883399391122665
  0.0771270257888086  0.8667127273619353  0.7732405698020063
  0.5612696174399474  0.3614665307260592  0.2881212328709939
  0.5756979439136818  0.3665038391090625  0.7711445436982208
  0.5704695545153099  0.8634600583536954  0.2751852684961900
  0.5762257983879407  0.8705520353095181  0.7707015320981703
  0.1513043049601680  0.2049517946027559  0.1108849117705427
  0.1331202599078311  0.2083533142985985  0.6034583050900358
  0.1408267468621048  0.7007909448451316  0.1104974108708125
  0.1295761816126905  0.7050472039044940  0.6052339458511925
  0.6489324740675553  0.2024445154225415  0.1119473911113671
  0.6304651594848125  0.2026463443947578  0.6045730023895168
  0.6347213048453896  0.7076211912491100  0.1080760886006230
  0.6310100652572037  0.7069316811373447  0.6053152792685291
  0.2975907387879777  0.4321059821544496  0.4418716987026491
  0.2885631554961525  0.4253054476837457  0.9394947463428199
  0.2912338850889329  0.9304338776476848  0.4447596757629598
  0.2908052859906166  0.9261941407987522  0.9432053454529846
  0.7911238182522449  0.4260163228340078  0.4434488631181910
  0.7868461821601433  0.4279281787726153  0.9430963177485367
  0.7901733869745198  0.9268327190775076  0.4414034139325327
  0.7866417605437768  0.9274400660428959  0.9405375255573326
  0.3510675121722375  0.0535120403456175  0.2213859259621439
  0.3695348329397499  0.0721811656736079  0.7287603280474008
  0.3652786766631504  0.5728998761080943  0.2252572324599139
  0.3689899251621451  0.5759215813093591  0.7280180481125365
  0.8591732382484050  0.0599641933918782  0.2228359004498500
  0.8704238079606426  0.0754709971891505  0.7280993762583636
  0.8486956863144361  0.5536474827150680  0.2224484123749836
  0.8668797326256630  0.5752330288684941  0.7298750286617113
  0.2131538099936139  0.1410819959746185  0.3902370183967245
  0.2088761940706916  0.1348925158192181  0.8898844717625713
  0.2133582385608519  0.6407983066324492  0.3927957984476633
  0.2098266273113088  0.6366593460740526  0.8919299101600673
  0.7091947101376949  0.1353888539118205  0.3901279882808531
  0.7087661290722296  0.1392000028813979  0.8885736534359902
  0.7114368351519490  0.6367422880686564  0.3938385868379968
  0.7024092748177502  0.6345152531381536  0.8914616364169297
  0.4387303916329427  0.3001969244875210  0.0452121009801126
  0.4243020587547255  0.2908059054099777  0.5621887905453384
  0.4295304500360833  0.7929905000233235  0.0581480720152397
  0.4237742006760349  0.7943262421470533  0.5626318071908238
  0.9378603669596843  0.3017049339359889  0.0449934021663133
  0.9228729766109115  0.2895857092974102  0.5600927687188376
  0.9277078453115539  0.7995912728473611  0.0503995023583775
  0.9235576924551928  0.7938273210043348  0.5639922408765257
