Ge Si O 
 1.0000000000000000
     9.9021462776910685    0.0000710355655348    0.0072114080557539
    -4.9510116202902035    8.5755457609846371   -0.0072114019685039
     0.0079351033028786   -0.0045813261636491   10.9115436081670971
 Ge  Si  O  
   3  21  48
Direct
  0.0002995138918704  0.2327448729656829  0.1707850691027826
  0.2764730565488729  0.2764730564708119 -0.0000000001134617
  0.2327448721337672  0.0002995135772282  0.8292149310310581
  0.0049250328750571  0.2370307485600438  0.6693162775267562
 -0.0006569543373645  0.7382635042683019  0.1670073889271678
 -0.0084513468769070  0.7271871194313505  0.6659484521676590
  0.5089775328983105  0.2341377176917713  0.1651696320005499
  0.5017230940866705  0.2340248688622917  0.6626170090489654
  0.4935597249952909  0.7296941200215118  0.1670342397451077
  0.4979544128311179  0.7381303796214498  0.6658637880619784
  0.2683088972821893  0.2683088971470809  0.4999999999519742
  0.2635574045497599  0.7684589001759565  0.0015446659191558
  0.2648013921339325  0.7704358211597278  0.5006136154872771
  0.7684589005764277  0.2635574045061317 -0.0015446660593156
  0.7704358211118988  0.2648013917202878  0.4993863845428617
  0.7598883393693040  0.7598883390176765 -0.0000000000688381
  0.7581237922727078  0.7581237920506273  0.4999999999636819
  0.2370307483773824  0.0049250329167311  0.3306837225155117
  0.2340248686633601  0.5017230941438561  0.3373829910880925
  0.2341377172140188  0.5089775326496502  0.8348303679316238
  0.7271871191525324 -0.0084513469871382  0.3340515477816218
  0.7382635038543314 -0.0006569547027329  0.8329926111649741
  0.7381303790689057  0.4979544125473735  0.3341362121093418
  0.7296941195097356  0.4935597246234188  0.8329657601809449
  0.0647530478111730  0.3690201453752021  0.2885742226115380
  0.0767818571394767  0.3684407608520641  0.7761158222549843
  0.0753858559846062  0.8727493650471438  0.2707654032883254
  0.0555664644883589  0.8517714730432563  0.7772659877549213
  0.5794738719073091  0.3629885757965833  0.2733270618835518
  0.5677128221258224  0.3585781272966582  0.7745017550658985
  0.5641211668605555  0.8577453400868212  0.2765994282825441
  0.5777717457757559  0.8692688374736632  0.7712087716370533
  0.1496237254038613  0.2012417781240217  0.1240946306420855
  0.1384761650828081  0.2106296944421714  0.6076761483914289
  0.1313138075505696  0.7087985547686262  0.1069523721165778
  0.1310543097398225  0.7099076799126767  0.6055416054889847
  0.6440969215349490  0.2043875310967329  0.1105940099358712
  0.6393880943373755  0.2122125423163665  0.6050962483022859
  0.6279777203796936  0.7040358344603557  0.1061631657608668
  0.6254465647716724  0.7026594433076510  0.6048078704094434
  0.2956630890429339  0.4302356275436749  0.4423294336626020
  0.2993716886772960  0.4520476424463243  0.9483581442379613
  0.2913798984971522  0.9294152501090280  0.4379917353788916
  0.3001548626648074  0.9369272096584060  0.9506756097115686
  0.8000021306491422  0.4255828929807565  0.4379680160102472
  0.7887268651777278  0.4216216500680395  0.9390965604337007
  0.7859974054010908  0.9183927781899739  0.4394682648407240
  0.7902477052856983  0.9212615366278522  0.9392950563943164
  0.3684407610991272  0.0767818575916425  0.2238841777984044
  0.3690201449639060  0.0647530481545937  0.7114257774667058
  0.3585781272899194  0.5677128227681040  0.2254982449090755
  0.3629885753830437  0.5794738723526781  0.7266729378000968
  0.8517714730530286  0.0555664653525339  0.2227340121533212
  0.8727493646292698  0.0753858561080886  0.7292345965078926
  0.8692688373146623  0.5777717465502126  0.2287912286381935
  0.8577453396380004  0.5641211671770521  0.7234005714285143
  0.2106296942444906  0.1384761647870159  0.3923238519410264
  0.2012417772518544  0.1496237247787507  0.8759053698231107
  0.2122125420956825  0.6393880939893989  0.3949037522916402
  0.2043875304771973  0.6440969208832404  0.8894059903543216
  0.7099076795240270  0.1310543088708606  0.3944583953206773
  0.7087985547627362  0.1313138068588336  0.8930476286655467
  0.7026594423487217  0.6254465636170831  0.3951921305591330
  0.7040358340645477  0.6279777195029018  0.8938368348411422
  0.4520476427847704  0.2993716885803698  0.0516418552368640
  0.4302356280166892  0.2956630891297148  0.5576705659688503
  0.4216216508123560  0.7887268651864997  0.0609034387402222
  0.4255828940471219  0.8000021311661801  0.5620319834221036
  0.9369272104582729  0.3001548633562057  0.0493243900223547
  0.9294152505637371  0.2913798987954358  0.5620082643708305
  0.9212615375687687  0.7902477054033166  0.0607049429491915
  0.9183927791338496  0.7859974055747856  0.5605317342839877
