Ge Si O 
 1.0000000000000000
     9.9251059875010466    0.0139525154921665    0.0060732888371913
    -4.9504891834955256    8.5437452669083118   -0.0018911466303877
     0.0066880703507643    0.0015117832572406   10.9154121588544850
 Ge  Si  O  
   3  21  48
Direct
 -0.0008742324746716  0.2325467733923783  0.1698240168354515
 -0.0025192840204850  0.7306369500727919  0.6658086081007012
  0.2766019286739346  0.2737574532837356  0.0005122248691241
  0.0018156238561758  0.2363748923915504  0.6675937762819827
 -0.0005898242121433  0.7363302504158509  0.1673445950692721
  0.5098716664124244  0.2344858033928923  0.1671780097730411
  0.4955878170654348  0.2307304435219799  0.6670797124387224
  0.4919987179783971  0.7313830202630802  0.1649632428223015
  0.5032378954375890  0.7375969620289032  0.6651572336221624
  0.2660211505689825  0.2664535516159462  0.4993045387275408
  0.2622634498144019  0.7685437397205497 -0.0021276540901041
  0.2734737516687442  0.7709399080223693  0.4990611982141143
  0.7671454449994088  0.2636782250916069 -0.0007453693813150
  0.7631391046997346  0.2634598341111798  0.5020382535766933
  0.7600392844227758  0.7615787759300329  0.0010373307658535
  0.7606754573912445  0.7625460093672770  0.4979840349841707
  0.2385133647783766  0.0033162525901137  0.3316679718660636
  0.2351970605074479  0.0012472706086277  0.8322080416464780
  0.2363370141521069  0.5014780928440524  0.3348838538426852
  0.2358846290528344  0.5078445161425714  0.8316738215329265
  0.7224339956761654 -0.0060513003930197  0.3335038788653125
  0.7384241592548738 -0.0000726910247372  0.8336819058985686
  0.7385337452603981  0.4993781726806426  0.3356547937551649
  0.7259419235336775  0.4927553346951534  0.8347694640455117
  0.0664627604637759  0.3690478362271241  0.2875884659939688
  0.0777544065489255  0.3689829506088123  0.7731059935515020
  0.0783776870597385  0.8700400207457712  0.2714174295743376
  0.0679287143708452  0.8653176243301229  0.7841549877693621
  0.5805734796238702  0.3631869124803489  0.2753610570454917
  0.5634407212249166  0.3575105746028225  0.7775873346807459
  0.5607103303236037  0.8595819202057062  0.2746553463866347
  0.5789903747347337  0.8680556008531152  0.7717686073246591
  0.1452064990644457  0.1972296957228376  0.1215874875078134
  0.1330626741954442  0.2092688393449461  0.6037699526846388
  0.1293749593579431  0.7079353649180135  0.1025881693240759
  0.1443444775949503  0.7038111208382994  0.6073020976207858
  0.6433956389911929  0.2033441338434324  0.1116712172762446
  0.6311832311181461  0.2069747221423455  0.6075549745552447
  0.6264479509505795  0.7058505740823763  0.1051663261608794
  0.6335755480024718  0.7036325461951689  0.6075156087852397
  0.2978316592241586  0.4298233529505565  0.4399526926375716
  0.2987037949192903  0.4477018169811253  0.9447145494127039
  0.2944518164590680  0.9303553277296706  0.4402645734564553
  0.2943803814514661  0.9341719023181018  0.9426388544855945
  0.7953534722578968  0.4274229434511906  0.4437363755921225
  0.7850107061141033  0.4220950982830244  0.9418871859965409
  0.7798921818778661  0.9210273403366259  0.4399238177163872
  0.7921959243454264  0.9243259734209306  0.9408286102520897
  0.3696564631205763  0.0758072297224579  0.2248863593994501
  0.3616400428907339  0.0652150016002018  0.7218481129875043
  0.3587974092231639  0.5668014416199666  0.2218305088471134
  0.3658821208116423  0.5785746721990153  0.7243930284796710
  0.8483848969857302  0.0574144392814637  0.2232880001313626
  0.8723325837681526  0.0750238770813559  0.7298722437427329
  0.8714787853317901  0.5754171264069303  0.2311780589941304
  0.8508981477480945  0.5552211811059574  0.7232595097725808
  0.2106928169732544  0.1368545010795849  0.3916126331697639
  0.2100850007277693  0.1415178393005525  0.8803428615552125
  0.2186107340459499  0.6422243652984952  0.3913407105751944
  0.2059442278470264  0.6427169822607262  0.8868756141919829
  0.7040620454485890  0.1333450978886227  0.3938480244237426
  0.7079496226408987  0.1320175939706093  0.8929849726397268
  0.7041901428332107  0.6299671300667344  0.3926643398190758
  0.7048903958835609  0.6312256391124644  0.8934344348210039
  0.4523286140545888  0.3017504967501722  0.0555670673942748
  0.4243183280845289  0.2914032716684224  0.5613516160377751
  0.4200888398006584  0.7908655982212989  0.0588707449906344
  0.4354871637893197  0.8002930522219157  0.5577497692392703
  0.9359303962361735  0.3009276505730779  0.0488278054003151
  0.9220071528233401  0.2891322216422515  0.5631047184720135
  0.9184111976487518  0.7888336285216714  0.0640134661003050
  0.9281296365093139  0.7998175290253509  0.5500561989577982
