Ge Si O 
 1.0000000000000000
     9.8952396533076712    0.0218019765313593    0.0095586282433162
    -4.9287557720813826    8.5586072521427372   -0.0105240616061433
     0.0105727491863405   -0.0073348657180598   10.9227348713794097
 Ge  Si  O  
   3  21  48
Direct
  0.0055280931957705  0.2361084310911974  0.1664742357752615
  0.5018574481373896  0.2316317037835357  0.1641473925932404
  0.2342717596751353  0.0007963084897314  0.8327257164134916
  0.0044738162416831  0.2368125244834963  0.6672049076662487
 -0.0052976515488693  0.7328060727435703  0.1676102517037051
 -0.0074031668581830  0.7292899864157760  0.6678191772553063
  0.5018133271451770  0.2329607221434556  0.6621990445706981
  0.4976090239589080  0.7321496620963415  0.1687384805631161
  0.4991359579750075  0.7387206977503712  0.6672941048365729
  0.2735546745023898  0.2748938111583003 -0.0037518355375047
  0.2666505860440059  0.2650573872682943  0.4988709407855668
  0.2623153268329814  0.7650682328699067  0.0046511175924693
  0.2627845355376418  0.7680501285743098  0.5033180694810746
  0.7709919836861930  0.2661304558636575 -0.0033814329261499
  0.7704639035157701  0.2663592720990900  0.4978903968659874
  0.7614174995920249  0.7618234054423224 -0.0005526560329179
  0.7621206741823219  0.7641927109178549  0.5007924641895913
  0.2283198659520156 -0.0031741728125947  0.3327129206888054
  0.2369452467415903  0.5025165381935310  0.3378977368132421
  0.2343017081240909  0.5058794423811083  0.8347255947722799
  0.7339181636417459 -0.0028472899392450  0.3323910102818077
  0.7397989429699764  0.0011350405933274  0.8324054891557519
  0.7352342443762107  0.4994838343858514  0.3351842805602624
  0.7288019741783103  0.4953892844312194  0.8322227044000021
  0.0701541175899421  0.3714919535964823  0.2846875041895529
  0.0771881449371715  0.3703698600921288  0.7720930473708034
  0.0654218318082204  0.8627829902839124  0.2755204918467356
  0.0574510300425233  0.8545173532159025  0.7788246358205274
  0.5690171981349185  0.3665191846982375  0.2828696155679115
  0.5690731481133245  0.3609782663518788  0.7715060908206790
  0.5711371701060687  0.8631833925936762  0.2755566592222435
  0.5789678577979293  0.8703022653337525  0.7721941685072705
  0.1561719055518917  0.2108371757062251  0.1124821900712554
  0.1374218688067901  0.2080846190514341  0.6068583455203324
  0.1294563861287225  0.7054954493633387  0.1095652391200375
  0.1298662922067471  0.7071005934309741  0.6085943674058948
  0.6503472735779641  0.2022912249810838  0.1108357482755073
  0.6385667014512730  0.2099806157474960  0.6032858590362430
  0.6307322945809567  0.7057671609552530  0.1061888492713102
  0.6278868089918909  0.7060884566050726  0.6044808674614874
  0.2952957058737884  0.4283842952756379  0.4430810933516703
  0.2917974440887671  0.4359681711393987  0.9441940346676394
  0.2848438024670466  0.9262444495557370  0.4421876398575101
  0.2991975940413423  0.9335645854971200  0.9531004771116434
  0.7989156532663153  0.4283952328022911  0.4390218037819730
  0.7861802558504360  0.4234968368166230  0.9398352966879305
  0.7903706202514400  0.9254220280167216  0.4410185976216227
  0.7922109573295214  0.9242893050529472  0.9397677770480690
  0.3550013922416265  0.0577591934253771  0.2226926053984924
  0.3708854768317081  0.0657174297514649  0.7154593090398105
  0.3651636367867888  0.5711555027230023  0.2292491320861771
  0.3665493670367114  0.5797603765056735  0.7293541418302095
  0.8606638331923042  0.0591817142153071  0.2223627356592597
  0.8734476506232034  0.0755170407084967  0.7281423182813807
  0.8607548336736357  0.5705805817685723  0.2249610396858308
  0.8586188570731806  0.5663701933684959  0.7244339700232286
  0.2069198355977022  0.1361889491696587  0.3899789048395568
  0.2055401831430237  0.1500372428123637  0.8848352961136374
  0.2120073812141452  0.6380926110260684  0.3968472306275780
  0.2049931358010602  0.6397359799520786  0.8932657745858500
  0.7133303866626833  0.1365712909740731  0.3899550899710690
  0.7113305097547961  0.1352063908218203  0.8901724342435440
  0.7084967915969711  0.6338615058619808  0.3944676031653726
  0.7034894285652126  0.6308178832761112  0.8923636564358162
  0.4403031802689235  0.3009094580979299  0.0421858993815506
  0.4275446352518797  0.2900699922299900  0.5562287766445223
  0.4212243599678575  0.7873975300519215  0.0635316021324999
  0.4240602768898479  0.7989317341734989  0.5643305462945456
  0.9401033674202807  0.3028997999461699  0.0458277869209095
  0.9290167892008665  0.2908458345070044  0.5597043299681111
  0.9220490771545147  0.7892782765722621  0.0598111525007610
  0.9212256132549320  0.7903238314699930  0.5624981520629263
