Ge Si O 
 1.0000000000000000
     9.9162258011710342    0.0123172649892065    0.0073688365490671
    -4.9474552230175730    8.5466974459314180    0.0029600889537601
     0.0081281132729375    0.0085035194275951   10.9189729525162740
 Ge  Si  O  
   3  21  48
Direct
 -0.0000365771710904  0.2341579100249005  0.1670004120491017
 -0.0035634083429244  0.7342317524030343  0.6649326679133728
  0.7668154130850824  0.2678496229588175  0.5006476547126970
  0.0061095125292534  0.2339983315118793  0.6674308535496806
 -0.0010907566030727  0.7371564643472823  0.1651867473300178
  0.5060916999144983  0.2366914777519700  0.1678582387307543
  0.4952373711792801  0.2303512973728757  0.6695933285534784
  0.4934707722475546  0.7278675908623903  0.1660318054894468
  0.5033911392316797  0.7371447743356440  0.6669164968487912
  0.2749615462433199  0.2697503917103855  0.0018169483102134
  0.2673960797326779  0.2625493826730244  0.5005827372016050
  0.2609324937334149  0.7612830619604246 -0.0009189468785169
  0.2712034040313723  0.7677095364513666  0.5004255371964108
  0.7650032999138873  0.2666830748382348 -0.0019251526424229
  0.7622202207904034  0.7650376568643997 -0.0006176706712962
  0.7615265891188934  0.7686473121583111  0.4966263471679148
  0.2381402886630153  0.0009748927019343  0.3321581527383998
  0.2330544924121093 -0.0005817180272506  0.8359461568516705
  0.2362983034359814  0.4983474220631414  0.3370627350840981
  0.2390042799899559  0.5002374242075569  0.8340182454448369
  0.7249859641129991 -0.0043947235311549  0.3295024652044971
  0.7368870473556318  0.0020091365568928  0.8329457604995714
  0.7351584914173775  0.5064376971502256  0.3336716107669974
  0.7253861069457719  0.4961618301638653  0.8327910213744125
  0.0673681986924606  0.3670862289242995  0.2869433322452196
  0.0805532346083765  0.3638983148058053  0.7743638417537614
  0.0785499910244194  0.8695359002072774  0.2699826504707733
  0.0650638409018075  0.8687220242531954  0.7840733838224148
  0.5777466738290830  0.3662502590498720  0.2756148497125959
  0.5618058727673950  0.3610030525098667  0.7772420581554307
  0.5639100456607647  0.8575582527443378  0.2737540579987712
  0.5769098459411378  0.8682322485063524  0.7730971317899351
  0.1482517655422016  0.2074659609328627  0.1117871191595447
  0.1380414650418760  0.2031160272105728  0.6086347970103192
  0.1273783881306459  0.7041556100069405  0.1031277539493762
  0.1427913744601208  0.7045954805456803  0.6092005115184927
  0.6390738847609145  0.2077206695255582  0.1086602939632085
  0.6306092885620281  0.1994739812682508  0.6184805749683937
  0.6286866679631354  0.7047582661910156  0.1042365563951508
  0.6360723899082453  0.7076870506394282  0.6075856115162798
  0.2953581719961099  0.4253468888045156  0.4429303101093746
  0.2979533739019073  0.4298749486605441  0.9424316507819644
  0.2929690644153812  0.9267159180832722  0.4402642826500155
  0.2921912530438763  0.9243492056967739  0.9400005364125341
  0.7978306931523680  0.4457720725773711  0.4460695602246474
  0.7844037139406843  0.4254097764943545  0.9398972529535699
  0.7820682334349112  0.9295298906355880  0.4415784596952246
  0.7920634921174379  0.9278338352219996  0.9406023392660876
  0.3710310637088111  0.0758000317472643  0.2270523702652524
  0.3582572185928563  0.0677618733251527  0.7252167653923139
  0.3611292305677107  0.5646346137353913  0.2253109824242464
  0.3700138789134809  0.5763981092555914  0.7275972292583799
  0.8529552463648143  0.0559305141071951  0.2201751160722919
  0.8685340830417069  0.0748726709120520  0.7268063128839249
  0.8659788942800247  0.5777735840825935  0.2273242269702755
  0.8499678763454874  0.5575893338561152  0.7211008385995481
  0.2094113786275580  0.1339140919461964  0.3921896222734838
  0.2152230494312530  0.1387461346657424  0.8955870390583790
  0.2164630058210464  0.6377129200449896  0.3938852822147061
  0.2059989636212607  0.6312697944116759  0.8920256228697515
  0.6997304222249244  0.1354529078064254  0.3796609922064921
  0.7076842582495151  0.1348215659911814  0.8922437072914481
  0.7023932557068464  0.6396621023195123  0.3880254676093267
  0.7067252746594864  0.6362131015075130  0.8907727386953224
  0.4365210916841910  0.2970479132196422  0.0599761209554253
  0.4284901390455467  0.2884424260943551  0.5583822801148464
  0.4190846618826118  0.7858434376196245  0.0608821252728430
  0.4326938864021518  0.7967555110173088  0.5597491714347099
  0.9328618948223727  0.3039318456052730  0.0498594737511100
  0.9415537926978165  0.2969070409699374  0.5580826658171492
  0.9222398076711510  0.7932710397521896  0.0605182276902817
  0.9288229278724890  0.8028539730010795  0.5473325515259944
