Ge Si O 
 1.0000000000000000
     9.8997852330385339    0.0020297704373034    0.0004324025466811
    -4.9481359831308618    8.5695758127513706   -0.0018187323179784
     0.0004743179819406   -0.0020457550141457   10.9176424444652937
 Ge  Si  O  
   3  21  48
Direct
  0.0019138643988536  0.2285729743610259  0.1706007194905020
  0.2758351779496249  0.2665547491659135 -0.0023719730635431
  0.7301643531520797  0.4989379010796434  0.8343178912198300
  0.0021181897831806  0.2353654542033572  0.6672946242436966
 -0.0022974983408093  0.7379698589526936  0.1662162658326580
 -0.0017163247307275  0.7328372005877440  0.6626444681308472
  0.5115363099369084  0.2349422934353137  0.1656077567198348
  0.4948904604759754  0.2274961746403153  0.6653254476833647
  0.4919564674708521  0.7333721835588021  0.1675917056178608
  0.5011766004008438  0.7394007195818870  0.6682612208642408
  0.2657166295776859  0.2647818030315750  0.4983956509480247
  0.2600145268737408  0.7654587073382915 -0.0014153018168982
  0.2699318177474432  0.7712417685875237  0.4987594020337549
  0.7716926005068293  0.2663877140580712  0.0011738212609341
  0.7653109378796835  0.2640459517864463  0.5013899639429382
  0.7604394704534599  0.7701374926409403  0.0023374233757519
  0.7601390559635078  0.7611966489243949  0.5017577885195269
  0.2390963418512582  0.0042350734047641  0.3292313805758482
  0.2320587317654985 -0.0051672827301819  0.8276634119155237
  0.2360178499686658  0.5006342224837492  0.3362474893172967
  0.2355705661991716  0.5041205533483591  0.8336031338501408
  0.7245195586603094 -0.0071707372132985  0.3355455572506537
  0.7373590460218797  0.0049472962996036  0.8345447405042745
  0.7367809512036021  0.4995279113011040  0.3353980284995862
  0.0675866610304846  0.3668950841930266  0.2869724756767525
  0.0779537557237787  0.3663705775155292  0.7735482894561632
  0.0775020705093345  0.8717132981123835  0.2700064652675404
  0.0690426193368907  0.8583575689055180  0.7730353341648409
  0.5787439402293676  0.3650468967520425  0.2729520512063108
  0.5546328095844804  0.3515866655109175  0.7774190566214249
  0.5606224299125967  0.8604725646110533  0.2778235121316114
  0.5773071821626000  0.8706571576935203  0.7743368083069658
  0.1484278583649708  0.1936668436918506  0.1217459530564165
  0.1330124520589424  0.2070085336937542  0.6035168512191748
  0.1273815730348971  0.7076067865952448  0.1032503371974759
  0.1354247669635895  0.7123913214863761  0.6021036516392070
  0.6476359839636566  0.2048137871409716  0.1136569007804562
  0.6345695854409886  0.2085353775622736  0.6080736401840465
  0.6289225683339278  0.7112875797756614  0.1083374033928882
  0.6311367465479869  0.7055301598267295  0.6095659424378581
  0.2978410375864092  0.4287093511091966  0.4409038175248661
  0.2991949850131229  0.4412951409432694  0.9439278808771536
  0.2966692330875356  0.9304933654668991  0.4358854455037894
  0.2900917788282825  0.9276172187802819  0.9386825450549721
  0.7948312245999988  0.4250856656421912  0.4405237659266253
  0.7987811069493904  0.4321881251821394  0.9522430472804377
  0.7823579509040574  0.9196440579332595  0.4417541533528329
  0.7917406957796219  0.9341474437190875  0.9454035258857916
  0.3703037221078189  0.0768135194558153  0.2225925429708226
  0.3611361854373706  0.0616154988305236  0.7190599364046952
  0.3595477854546787  0.5686600955478709  0.2240283027719837
  0.3658531788331345  0.5793368114567050  0.7270269269803659
  0.8508277110424955  0.0547092735433802  0.2255067581714259
  0.8701688548921370  0.0751497181030942  0.7292553805293035
  0.8685855943404578  0.5788329063097744  0.2304909412046409
  0.8655492576445337  0.5662766544738208  0.7157095745703822
  0.2099691317410771  0.1364136066772131  0.3899085246411998
  0.2042991548152001  0.1324902732941119  0.8783710768220303
  0.2154925343688057  0.6388872737520400  0.3940741136065933
  0.2037012649128357  0.6360788636522108  0.8909073563321902
  0.7060545160344044  0.1319836095641558  0.3952014082962659
  0.7091768080685549  0.1404365127590537  0.8902886834499781
  0.7028708683808967  0.6278986037259179  0.3971345005291118
  0.6999382104601257  0.6449920867161689  0.8909226372859509
  0.4543062808649858  0.2975626669746678  0.0504843220719627
  0.4245389620537630  0.2877331682186531  0.5585621904540494
  0.4190659258542465  0.7918363898694077  0.0613360738814372
  0.4297628251068050  0.7997898874924909  0.5619259952431412
  0.9386967452558950  0.2948968825407482  0.0485057918400700
  0.9252443665663432  0.2911666035962624  0.5624002953090413
  0.9194516919794224  0.7923346042254493  0.0614865236529397
  0.9238217226665970  0.7931572845479830  0.5590306719142505
