Ge Si O 
 1.0000000000000000
     9.9148687517912517    0.0132900862193829    0.0033198055190139
    -4.9459120005051531    8.5522110993059162    0.0096200967720304
     0.0036686247212910    0.0143761278699540   10.9149454168700366
 Ge  Si  O  
   3  21  48
Direct
  0.0016364850308455  0.2346062364931223  0.1657851714014713
  0.5007227568806629  0.2343575794576251  0.6644137939466022
  0.2629093719462182  0.7635781934602961  0.0009588621035969
  0.0023822523507535  0.2301552907091243  0.6645531170646390
 -0.0020660702180562  0.7351953593870207  0.1711920212832697
 -0.0027674803898133  0.7351577440935951  0.6688540976695491
  0.5021333598921216  0.2341246684053117  0.1638149378186110
  0.5012506356554570  0.7328950423137592  0.1684013578780116
  0.4987363356794594  0.7363358866840390  0.6683957208003521
  0.2721710915054295  0.2688966925912133 -0.0028861733144525
  0.2649547040905198  0.2669914017326842  0.4953564742650683
  0.2661277405819580  0.7717837796703427  0.5024702120425897
  0.7638683305647219  0.2646144810722115 -0.0033779077170131
  0.7704326273226649  0.2623767601450234  0.4984209884892665
  0.7677505959180299  0.7683464914724610  0.0036567156885868
  0.7609461124033390  0.7609294675593360  0.5021987435313332
  0.2367654076046120  0.0034163013683241  0.3316053959705145
  0.2295524320575273  0.0008656194496889  0.8322854671417238
  0.2337533554967599  0.5054648610423491  0.3348436072386888
  0.2339616635591011  0.4972019568352376  0.8313684706119797
  0.7328216003608451 -0.0058453231295128  0.3335138951283734
  0.7362154726462672  0.0000180341635227  0.8336945452635521
  0.7312311246725461  0.4960216477496391  0.3356774755466859
  0.7344348674864172  0.5034218211780046  0.8353098061100404
  0.0675081157740045  0.3738380627553572  0.2810905066218331
  0.0767929017224195  0.3599747679542712  0.7712385575609194
  0.0745355255606498  0.8679488310088527  0.2758695976979773
  0.0669547308201264  0.8636259921773191  0.7777914337154906
  0.5735566725284658  0.3633012441271842  0.2719079857574356
  0.5686663305697350  0.3731644483561490  0.7799937459748788
  0.5695448597839317  0.8601248502800659  0.2778900566411679
  0.5748677409648897  0.8650664166533267  0.7760571958369066
  0.1472619222993020  0.2048920397236771  0.1084971571916304
  0.1361153338373202  0.2027845700162926  0.6042154495260691
  0.1270289587942533  0.6963041063645383  0.1183672415780603
  0.1326819730893438  0.7126381862488621  0.6072095674064808
  0.6363855782880256  0.2055942014400232  0.1062222188602464
  0.6442390251749339  0.2002145047735976  0.6089045706865979
  0.6373994989237198  0.7071454849703350  0.1114069824567420
  0.6299899660782003  0.7067794315393576  0.6078625024191735
  0.2889872234230522  0.4293612300403618  0.4408287636793700
  0.2937488004797351  0.4306395829740473  0.9420891218707488
  0.2945747980122226  0.9334309879197700  0.4413436418787786
  0.2910809638872477  0.9392835540491028  0.9447507669332076
  0.7906130594272083  0.4218056308598948  0.4405732790962568
  0.7891413698722543  0.4266745514415051  0.9407448515447788
  0.7904029690884870  0.9220114559114354  0.4408541452462096
  0.7930519759285921  0.9293549577445099  0.9436153667203939
  0.3666114382023737  0.0733446551679319  0.2237261110199250
  0.3540055765083121  0.0585092775964244  0.7208102853755994
  0.3614525432526485  0.5726170670984850  0.2250674165953039
  0.3662540614947972  0.5732627511850894  0.7262216655565426
  0.8589339522561910  0.0570133954499919  0.2231344261231971
  0.8670586657123411  0.0707847998465344  0.7262845946982881
  0.8622206143926177  0.5758052483853479  0.2304455381285687
  0.8639745326581865  0.5723972019021519  0.7273076093589231
  0.2082672046363373  0.1387862931360014  0.3867406839291581
  0.2117807344143558  0.1434100966729352  0.8859324731481411
  0.2128050191998614  0.6428110293256424  0.3948152138233274
  0.1959176087196574  0.6274965702763906  0.8835677390485152
  0.7127212364975193  0.1335170336946079  0.3903067682712707
  0.7063436013138507  0.1343815605212629  0.8894355031428064
  0.7013953116000410  0.6264885191233419  0.3985556894946343
  0.7123013399144810  0.6400627979005840  0.8953257948813917
  0.4332494371833457  0.2933313423272629  0.0543853340533728
  0.4318492334591921  0.3008323583960988  0.5463334424280762
  0.4396000347745685  0.7968147040941015  0.0574872828211275
  0.4251367083118684  0.7977851905591031  0.5647537799314032
  0.9304608774470113  0.2982109607099326  0.0476673664420792
  0.9318269086342846  0.2895724330557107  0.5566820576037952
  0.9288791654311966  0.7949838574499654  0.0625695558960656
  0.9218991265557375  0.7909117728878157  0.5626121653603937
