Ge Si O 
 1.0000000000000000
     9.8985925354350517   -0.0000001464697866    0.0000001014380061
    -4.9492963945640192    8.5724325360153930   -0.0000001011310332
     0.0000001120047866   -0.0000000641687180   10.9128945974696183
 Ge  Si  O  
   3  21  48
Direct
  0.0000000088323323  0.2364249468143597  0.1666667408437959
  0.7635752280863290  0.7635752279779306  0.5000000002522597
  0.2364249471163616  0.0000000087239494  0.8333332589038086
  0.0000001350684223  0.2351612560913300  0.6666665624678740
  0.0000001133419103  0.7363111744493394  0.1666666136500565
  0.0000000047575306  0.7293685331972726  0.6666667810879336
  0.5006769063296413  0.2313109813585700  0.1635961348189710
  0.5018229567336209  0.2365376892677229  0.6625864375272951
  0.4993229932748720  0.7306340087464070  0.1697371804373185
  0.4981769195077058  0.7347147118503641  0.6707468457954469
  0.2706312915566136  0.2706312911361240 -0.0000000000949880
  0.2636890536562586  0.2636890533496981  0.5000000001440286
  0.2652854653086488  0.7634624065560093  0.0040802351424722
  0.2693657133989904  0.7686888444587516  0.5030703619345303
  0.7634624062594365  0.2652854647584421 -0.0040802349138911
  0.7686888453525865  0.2693657137447222  0.4969296378116000
  0.7648386251882334  0.7648386249217005 -0.0000000001774901
  0.2351612550812921  0.0000001348019033  0.3333334377094814
  0.2365376891109731  0.5018229560868050  0.3374135621932017
  0.2313109804495110  0.5006769061446356  0.8364038655698627
  0.7293685325458911  0.0000000043370648  0.3333332190069344
  0.7363111736615240  0.0000001130353609  0.8333333862057947
  0.7347147117902205  0.4981769199008715  0.3292531542552267
  0.7306340083680720  0.4993229929117506  0.8302628194274795
  0.0685393166895116  0.3723099301510693  0.2843416495427182
  0.0729248291840799  0.3651716826162459  0.7744461305899479
  0.0733457355307791  0.8667424702148209  0.2737578100198321
  0.0599453587483434  0.8533598901241823  0.7785370146092747
  0.5757536047095072  0.3613618859318394  0.2702990677136974
  0.5687942107628742  0.3654465411767596  0.7711545906985656
  0.5682967928684355  0.8599162561050538  0.2784516629901626
  0.5738357195958868  0.8663637038087589  0.7762239226307467
  0.1466401558764486  0.2065855397445067  0.1118704071828855
  0.1332577328266422  0.2066033417523376  0.6070910334847210
  0.1336364261021143  0.7074720169626565  0.1095572019884341
  0.1400837320944948  0.7083805394216022  0.6117850857626820
  0.6345534476657406  0.2033475218603880  0.1044880052457954
  0.6386380642991706  0.2143919055864335  0.6036324873528045
  0.6348283217257727  0.7077532630927784  0.1077795885196561
  0.6276901317996307  0.6962291709290758  0.6176751436242391
  0.2925277165916298  0.4261641573807578  0.4428905244772779
  0.2916195411530087  0.4317032146558152  0.9451184514167831
  0.2922467484660484  0.9270751157738427  0.4411128744703404
  0.3037705720772272  0.9314607912187377  0.9510083445355054
  0.7966524745324739  0.4312058135026132  0.4378215153620358
  0.7856080751801543  0.4242463258551491  0.9369657570040247
  0.7934144372463295  0.9400548471839167  0.4452037230245673
  0.7933966569744906  0.9266543150349699  0.9404245611118709
  0.3651716820023273  0.0729248309439656  0.2255538699363491
  0.3723099303995450  0.0685393171135857  0.7156583501295993
  0.3654465407644945  0.5687942113123857  0.2288454087144222
  0.3613618848100986  0.5757536051155642  0.7297009322959596
  0.8533598892364695  0.0599453586006333  0.2214629849532366
  0.8667424691611303  0.0733457367767875  0.7262421895288701
  0.8663637036620285  0.5738357208247299  0.2237760773138542
  0.8599162562431057  0.5682967940972161  0.7215483372549888
  0.2066033391306017  0.1332577304452245  0.3929089684586677
  0.2065855389079701  0.1466401542797915  0.8881295936585817
  0.2143919042424392  0.6386380620446689  0.3963675137083426
  0.2033475204352130  0.6345534465072782  0.8955119961892514
  0.7083805386184372  0.1400837314131242  0.3882149147229680
  0.7074720149951834  0.1336364241208801  0.8904427994458555
  0.6962291701499139  0.6276901309580983  0.3823248576429369
  0.7077532611843370  0.6348283196590205  0.8922204125662386
  0.4317032157628032  0.2916195414405460  0.0548815478521866
  0.4261641586233655  0.2925277159997343  0.5571094741436055
  0.4242463271717603  0.7856080753639769  0.0630342419248838
  0.4312058137854538  0.7966524740690812  0.5621784837896336
  0.9314607917051561  0.3037705714736846  0.0489916545247603
  0.9270751176920197  0.2922467489314152  0.5588871239172019
  0.9266543160406875  0.7933966566524798  0.0595754373957800
  0.9400548477963545  0.7934144371497945  0.5547962765711715
