Ge Si O 
 1.0000000000000000
     9.9161768666408765    0.0129822673185449    0.0036913736950070
    -4.9468437566578647    8.5490589750980384    0.0029361566691578
     0.0040739004344458    0.0061277316401955   10.9164689580454972
 Ge  Si  O  
   3  21  48
Direct
 -0.0008567595472600  0.2284458997460517  0.1646577575508584
  0.4975280932345066  0.2317029804244914  0.6636031517178599
  0.2672965506632557  0.7733977774550118  0.5026739760228413
  0.0044740716909149  0.2355502861882352  0.6658054167502363
  0.0007211827222148  0.7377539038419743  0.1692470053668045
 -0.0060389389647324  0.7321309284406121  0.6710821737837661
  0.5044449461181802  0.2364971672073646  0.1639438001433228
  0.4948739760663831  0.7332643952136046  0.1682523158846011
  0.5047634399345305  0.7354490263519403  0.6685753534871658
  0.2728495696319490  0.2658489402189448 -0.0032210771234106
  0.2645340742304528  0.2709111837588334  0.4953389697764474
  0.2621714603239860  0.7634785511140963  0.0010238311140208
  0.7636381956479582  0.2643980052770220 -0.0034486957086525
  0.7703682934448998  0.2624880326119148  0.4986162994422493
  0.7644574927590327  0.7688542682153470  0.0037052081992845
  0.7640080123822922  0.7602469047258913  0.5023697463408621
  0.2363155009307916  0.0099046691739085  0.3312777755432399
  0.2301387060056178 -0.0053966906242821  0.8320490655695627
  0.2314071910447855  0.5028248142308429  0.3326266025507344
  0.2364274912746734  0.5001706874990239  0.8336341702653146
  0.7301282032839262 -0.0083931662320515  0.3343115748071501
  0.7391887999891249  0.0022334846439483  0.8334761060272450
  0.7372158827949669  0.4982522168031723  0.3345373282755222
  0.7286903115856945  0.5008211685053304  0.8363892715967752
  0.0666981129342630  0.3659163643897760  0.2810857185313407
  0.0774041145520487  0.3672301841574153  0.7717730778782681
  0.0776003074523154  0.8696250867017896  0.2749307457906245
  0.0636728329227295  0.8618735628418568  0.7791919650107094
  0.5790374030540468  0.3674840101502824  0.2702536633194150
  0.5633469201724176  0.3682688281975100  0.7815332083358438
  0.5650690498021850  0.8593566535517644  0.2788340743958687
  0.5799180881574455  0.8651168062276744  0.7755586411114298
  0.1453622189999474  0.2001923275532438  0.1063677920040870
  0.1382983150992404  0.2081290124437145  0.6059045392138703
  0.1304203432103417  0.7076530651435247  0.1062399669395369
  0.1288482179390480  0.7012479947330701  0.6187832050457109
  0.6361368890481813  0.2043404476798154  0.1061047695094238
  0.6433858908421045  0.2009455427350001  0.6083767239764510
  0.6308514201007627  0.7106122062964748  0.1080167027450091
  0.6353926659318039  0.7022369474240868  0.6106463335097536
  0.2892547505769952  0.4349384069504498  0.4432014320499278
  0.2941558706204851  0.4260291913739049  0.9397165487400888
  0.2977862698763286  0.9502162097552753  0.4456034707504291
  0.2892041331116780  0.9235697470188212  0.9392303530629740
  0.7929766809940295  0.4225299480426803  0.4404226098483765
  0.7870022791666443  0.4259700260091161  0.9409927219576170
  0.7877264432160442  0.9198121737919197  0.4420426076462056
  0.7958602982682254  0.9317988681187397  0.9434110322562369
  0.3671192397303549  0.0781125364790758  0.2244213713004723
  0.3529184301760323  0.0533671990168788  0.7191903714866337
  0.3603054692580147  0.5689780827758716  0.2239319280163471
  0.3669378081774447  0.5763838625535740  0.7271047815557796
  0.8547538327952967  0.0518330359952752  0.2225557583026110
  0.8713269309100308  0.0753738982429234  0.7276775548320268
  0.8704223258083154  0.5765288042154915  0.2305476016269084
  0.8561136358198577  0.5708593894265485  0.7272673048105712
  0.2050474144788008  0.1450516478129589  0.3841501184501960
  0.2156454748408089  0.1376609074358436  0.8879965106634220
  0.2032320009897677  0.6405824446216801  0.3826452402444566
  0.2069582721743283  0.6311813726334681  0.8958198790871479
  0.7130301752297871  0.1330203284833621  0.3908085952799475
  0.7060534986607966  0.1345602070024967  0.8889277347855159
  0.7065724986592516  0.6286950358347730  0.3964345161510073
  0.7076906410332268  0.6381148774011668  0.8969374938708147
  0.4352372068508608  0.2953986128953463  0.0548724805680928
  0.4302138400125534  0.3001292395949654  0.5456658783696413
  0.4226773940161235  0.7936975262317189  0.0629095481911335
  0.4418966563898556  0.8012577735929896  0.5599290739992095
  0.9296084268027816  0.2962972960714390  0.0480013185283666
  0.9319749329917207  0.2913936700930414  0.5573687426137600
  0.9233348716011257  0.7945748364512210  0.0654673109510854
  0.9267737592941276  0.7910183690570567  0.5606198552988511
