Ge Si O 
 1.0000000000000000
     9.9197172348787337    0.0126846159002098    0.0035408218353216
    -4.9488696325096715    8.5480161710481539    0.0046358378294319
     0.0039040739708713    0.0081937962258574   10.9176786054239159
 Ge  Si  O  
   3  21  48
Direct
  0.0024699351526946  0.2357363645055866  0.1679074029884346
 -0.0026143731864596  0.7304879785004373  0.1658895762227953
  0.2702181361265323  0.2727967071412545  0.5005588046895556
 -0.0008050587804694  0.2340199890030162  0.6699113480706395
 -0.0004464429979083  0.7370115063201766  0.6672311968273197
  0.4998571113286688  0.2320051924155553  0.1669327916879643
  0.5063587395861682  0.2334239371682503  0.6670180175091905
  0.4990541964187551  0.7343308246335820  0.1654212999167532
  0.4964279706886274  0.7347108040410483  0.6649359862851482
  0.2726020963678098  0.2668945378355750 -0.0010777318678126
  0.2697883636328813  0.7654545221856729 -0.0018771975094174
  0.2654470403018871  0.7734178093354682  0.4991541292113862
  0.7631548648288550  0.2660788525915967 -0.0000165463833633
  0.7672046345037792  0.2608067071216734  0.5014641988095229
  0.7599378171491444  0.7642078405954985 -0.0016904269661282
  0.7605552878797205  0.7597543400882216  0.5003325776947016
  0.2354784370569772  0.0035515769146884  0.3316684511580399
  0.2380880333866212  0.0010637934713445  0.8319831662299650
  0.2364729923372895  0.5104662858776350  0.3345839287444105
  0.2363154832235184  0.4992186061228885  0.8327398309762810
  0.7313045868889223 -0.0060198996231692  0.3334855781567476
  0.7288131248223068  0.0001247739294233  0.8336120596939760
  0.7288939912405227  0.4908737266024481  0.3359231620042676
  0.7347796295792667  0.5013974731318832  0.8343327685726347
  0.0709016688401766  0.3709146422222134  0.2864300355202516
  0.0736641420256884  0.3667077237673001  0.7751173163302604
  0.0691979359781525  0.8662409789708335  0.2832288431445745
  0.0768756808259445  0.8702883626661356  0.7715807815361684
  0.5660071033255167  0.3566538811101780  0.2787111702924492
  0.5776645923185113  0.3648340094353843  0.7731455719315354
  0.5687412078458135  0.8618905832455004  0.2748469904970757
  0.5703916299871937  0.8660171624931398  0.7714503380588557
  0.1464974497877390  0.2052380981266905  0.1089098602290700
  0.1315199729236866  0.2000236059290690  0.6164681117896890
  0.1423098825965513  0.7007955835942102  0.1072664176032744
  0.1314532986007395  0.7104637088946181  0.6035186260178838
  0.6370827356996558  0.2077643373686166  0.1104658477911528
  0.6388192819320879  0.2020278229707046  0.6103019070556533
  0.6331407495166341  0.7054618430359674  0.1083271372839066
  0.6276291217647183  0.7044545340229662  0.6048103650229792
  0.3019902999424544  0.4513032078564638  0.4464937974529695
  0.2952604189731629  0.4266779603153851  0.9392794740810908
  0.2952575878918056  0.9382107243778453  0.4434170020181889
  0.2922597524380586  0.9252877364623209  0.9393129062928981
  0.7894595305563195  0.4205759565382252  0.4426414868530287
  0.7889576550702400  0.4282779272862783  0.9431976123778517
  0.7885779274897741  0.9203914996282000  0.4395593881600589
  0.7830621931363315  0.9248361315802289  0.9407667820850822
  0.3623571245208480  0.0681566223262084  0.2214368085666400
  0.3692027719562055  0.0733669379031804  0.7253855711643474
  0.3605539906702236  0.5735773431387357  0.2226324975331355
  0.3647299298867453  0.5718652997294484  0.7243341082936401
  0.8578275292038561  0.0586054222065022  0.2238052546134805
  0.8624872155201234  0.0749223214300665  0.7295172360472388
  0.8531432340906556  0.5545293084579630  0.2242387965625122
  0.8695228853667116  0.5767238772850457  0.7307659554930344
  0.2063123025768664  0.1415300084036571  0.3798080067341714
  0.2145397317820614  0.1368272576640455  0.8918472920924128
  0.2113614367531641  0.6489182494785473  0.3877669013018736
  0.2125650154443468  0.6355366245798123  0.8910772197853963
  0.7097910660777631  0.1310236130398530  0.3938301989282070
  0.7013322939103246  0.1341521899678815  0.8934003020300930
  0.7061763760648704  0.6280736857551914  0.3944637611390547
  0.7019627048348143  0.6331332269357186  0.8913980928330801
  0.4341899299730290  0.2947530770093924  0.0577691224386982
  0.4438281063665593  0.2977409654614553  0.5571285784542426
  0.4324341404127373  0.7956532063760513  0.0561546966363182
  0.4230896156066734  0.7949256389254195  0.5603144662508972
  0.9300801660049181  0.2997881564352049  0.0506644852682074
  0.9295026238005972  0.2907860845948451  0.5598353361926555
  0.9265395971199516  0.7980489576575911  0.0500026382545877
  0.9203917950509906  0.7902096534285130  0.5627505312343652
