Ge Si O 
 1.0000000000000000
     9.9161652259155399    0.0131449882528860   -0.0009606282745575
    -4.9466965935226455    8.5493448161095316    0.0064798430488828
    -0.0010496541294696    0.0076604204447513   10.9201252051361291
 Ge  Si  O  
   3  21  48
Direct
  0.0040318728880882  0.2337111711010804  0.1668312883429665
  0.5070547647482009  0.2309394495839013  0.6654010219076004
  0.2693170833287412  0.2701746494177692  0.4967059654527569
  0.0043868863467894  0.2323955542369205  0.6687526320845055
 -0.0037207154766623  0.7329651054586089  0.1673134029878904
 -0.0056529420344372  0.7354147678940581  0.6685926283205734
  0.5054630824969618  0.2340286788420573  0.1655797706811408
  0.4938077069305394  0.7354512908546551  0.1668340283000279
  0.4952204781036258  0.7367746626454742  0.6661467996646221
  0.2755550972844530  0.2673580945002565 -0.0019644620008135
  0.2592543197460268  0.7619880466455661 -0.0001307960636150
  0.2619300551445683  0.7735047516247530  0.5010880930011419
  0.7668895453903865  0.2662914097867912 -0.0019916760932096
  0.7768493936468813  0.2635183231963641  0.4995607598717019
  0.7605644973452603  0.7663302781385808  0.0024566433623699
  0.7575546624546592  0.7591734637304136  0.5009010887590392
  0.2355887506870246  0.0031590919839366  0.3286641856998774
  0.2320767411238352 -0.0030066249776527  0.8314659322946694
  0.2322086760887127  0.5094664441030227  0.3360341802605833
  0.2353018625849498  0.4986470626453356  0.8345018990981270
  0.7323624553671771 -0.0053150260964529  0.3316630176434432
  0.7337445498505454  0.0010278873417641  0.8327890715970654
  0.7358055669844263  0.4953023464420053  0.3366227451676970
  0.7341293782827975  0.5021122021888171  0.8368993861285388
  0.0683778320797682  0.3699875703727796  0.2847647216365889
  0.0751737128605881  0.3640326036781181  0.7749429361779417
  0.0762849611669578  0.8650340311522609  0.2718158247646638
  0.0669760520359368  0.8654588128793528  0.7759976015805389
  0.5770348409206105  0.3621219016927943  0.2742230795248717
  0.5697805161864925  0.3673541236212168  0.7828707778607771
  0.5675852901121501  0.8648151756900877  0.2746465135756315
  0.5735747975699790  0.8673022968450708  0.7726473157580335
  0.1493869640850922  0.2047413832895039  0.1082876509572864
  0.1380876999939081  0.1982084579223651  0.6180370524461342
  0.1256388175714156  0.7026590005151557  0.1037774171018808
  0.1286752271181061  0.7119508099941370  0.6059006790232058
  0.6400145570622192  0.2063958333769980  0.1078930658063999
  0.6539256528307157  0.1998911871138372  0.6124782228149971
  0.6264019229148027  0.7075317649420774  0.1063300669076281
  0.6241437236554943  0.7044428089265254  0.6044417604370400
  0.2961083624635137  0.4483368821872542  0.4471749810535665
  0.2969878212522640  0.4275177854350252  0.9402018825774620
  0.2908716715289021  0.9369083876628105  0.4428374496151706
  0.2866033711978733  0.9225107756724361  0.9392017968943019
  0.7957987321397437  0.4231465768683758  0.4427933133516712
  0.7923729814744224  0.4291033825530093  0.9430267765921794
  0.7866658851730708  0.9192919895803279  0.4384519023655634
  0.7889167355377411  0.9278031120179472  0.9417034562465355
  0.3691082419459136  0.0726242570222258  0.2237224749468756
  0.3572926990039894  0.0557391495858345  0.7204346694808327
  0.3581912146548548  0.5745628819141578  0.2256399709758539
  0.3637017225675026  0.5753092599628973  0.7268060219063804
  0.8590359178847197  0.0558641055306555  0.2218953205958228
  0.8661930820001363  0.0734209757280885  0.7275883670189409
  0.8661959201342199  0.5726431680387242  0.2301653467507517
  0.8628235095332474  0.5728388703825090  0.7284850851622361
  0.1998495295882826  0.1373520616961968  0.3763349418225633
  0.2173218481138335  0.1389334852649658  0.8894350781695676
  0.2073260798074822  0.6473422921243202  0.3907042435354062
  0.2050871071965011  0.6300816920069888  0.8946460425143135
  0.7166457350508747  0.1358361445308237  0.3903020510041594
  0.7058688771717403  0.1358076752219448  0.8905955139051118
  0.7041239755115912  0.6257868726344396  0.3969664302412307
  0.7076422607098393  0.6369934087207327  0.8950780722059911
  0.4369482805325770  0.2945438091050912  0.0568816895681765
  0.4506698990317162  0.3030200675281459  0.5422517491689819
  0.4206362459212407  0.7940429929384391  0.0610855542190487
  0.4204197566183323  0.7971187179219084  0.5626592398459516
  0.9332706648140529  0.2985699968149238  0.0488385300162999
  0.9396581214123931  0.2907401666394568  0.5557140776243672
  0.9190501670673705  0.7916851812569700  0.0648435736606957
  0.9178272454807467  0.7911830321503004  0.5637621041175318
