Ge Si O 
 1.0000000000000000
     9.9187755666433954    0.0122560306604711    0.0034557561953335
    -4.9487667138208247    8.5451442378363183    0.0050113306843445
     0.0038103752203125    0.0086343985382511   10.9236273069845460
 Ge  Si  O  
   3  21  48
Direct
 -0.0034893906526118  0.2287250055609891  0.1647877039188019
 -0.0006423941890967  0.2318092777422059  0.6654264573927071
  0.7622951812668982  0.7667427868400144  0.0029451225812510
  0.0059134961526597  0.7392664168529006  0.1669280857095487
  0.0000005053590136  0.7397524713272602  0.6669566874850288
  0.5062738357874998  0.2385872833978276  0.1645391238774044
  0.5042295769350078  0.2330803512574727  0.6633011319110360
  0.4924377569702990  0.7290736444863756  0.1723831009912773
  0.4953941857992312  0.7314996302000042  0.6703701077768236
  0.2705660362411523  0.2644388379747632 -0.0006270114277804
  0.2702449202261534  0.2640357377219325  0.4993761075554126
  0.2682819353269916  0.7663041909155598  0.0016614468118504
  0.2652769363706396  0.7666766077607154  0.5013835073083533
  0.7652511543566833  0.2691981116644787 -0.0053096588698121
  0.7660968440326550  0.2660863536337141  0.4943704659877413
  0.7611141944237263  0.7654912110455058  0.5031680677172571
  0.2427701113422654  0.0033176384768524  0.3316180884030953
  0.2402655950518641  0.0012515409972024  0.8319530394955587
  0.2292898522491173  0.4961822600347915  0.3381587263872103
  0.2349915988386095  0.4987106778030850  0.8373782896790795
  0.7266609544368496 -0.0062944413248727  0.3338032912785864
  0.7260236063096902  0.0001110354887810  0.8334941565444070
  0.7360650399922897  0.5047428056122614  0.3320282810488920
  0.7339784076589191  0.5019539934882048  0.8298771655995768
  0.0640801392956757  0.3625614976502027  0.2843740528337765
  0.0691234249156949  0.3670859455904241  0.7834532484005444
  0.0815858964240005  0.8701415330097120  0.2729850977939396
  0.0772520064112261  0.8699124331899499  0.7736446786274428
  0.5773591994288646  0.3720863305415922  0.2692550452457236
  0.5770370102232958  0.3650107190947126  0.7687351396506541
  0.5618665189799358  0.8574626708506328  0.2813358063861681
  0.5649894515624539  0.8589550991294059  0.7801375409047119
  0.1426036054613581  0.1987635598421482  0.1084649811551113
  0.1429977866029673  0.1981942321906510  0.6090344407455085
  0.1375647560167586  0.7083378329635409  0.1083289287128275
  0.1319311993030448  0.7126521264023143  0.6050033570760212
  0.6401139936759978  0.2108275032103734  0.1057839847122984
  0.6379819065601881  0.2059187909177749  0.6034409184745955
  0.6259938119288593  0.6959648948788760  0.1203957192708069
  0.6293215716525226  0.7062932874835727  0.6089907177957320
  0.2908704889775452  0.4248770654665104  0.4437971438789479
  0.2933299583590708  0.4260700179675591  0.9439611591910598
  0.2986660524054464  0.9288261898280991  0.4387056448062386
  0.2955986663188931  0.9268630683710152  0.9397523145540524
  0.7905379466144690  0.4271600028315626  0.4370320965228098
  0.7901360848665345  0.4319836841290732  0.9398332106660854
  0.7864081223620556  0.9262241255794178  0.4433082553018675
  0.7894511143015094  0.9428178076725946  0.9475958827524243
  0.3743227549890131  0.0772897655907530  0.2256943225542486
  0.3706729356012725  0.0724133750586975  0.7245560887608284
  0.3544997285212748  0.5669531492956504  0.2275846767603301
  0.3620966526061860  0.5679255484869976  0.7277808882353247
  0.8502359189211062  0.0517074912710047  0.2214339667789187
  0.8503290510109661  0.0571588076497271  0.7219454391403968
  0.8683781173872603  0.5809420136674692  0.2268326918288045
  0.8683509363274724  0.5773358347544850  0.7263591443805905
  0.2143434984014406  0.1369136815962931  0.3901396073736900
  0.2154281282463919  0.1373826688074377  0.8901068286986500
  0.2067768254898476  0.6330319888526779  0.3973152643839408
  0.2118323327322800  0.6355046601776180  0.8955636721211733
  0.7074362968565449  0.1353911169073671  0.3872783102585276
  0.7032989918660161  0.1409541834048766  0.8851186660239357
  0.7074431046782862  0.6356692203702703  0.3957589277239359
  0.6973089931584942  0.6327253266872735  0.8835266938527354
  0.4330396983743516  0.2933743495699187  0.0560808813447868
  0.4323377169741576  0.2912092368243421  0.5558072830586167
  0.4278811948090554  0.7921126539544768  0.0628769960573121
  0.4227960999858533  0.7915429871080484  0.5650675021033202
  0.9300145047743242  0.2982660307704587  0.0470207429317441
  0.9321224626349647  0.3004771757803819  0.5477985894435000
  0.9400960929695248  0.8010579106618407  0.0576887370058968
  0.9228673097469133  0.7969269750010322  0.5633432285530784
