Ge Si O 
 1.0000000000000000
     9.9215166489614877    0.0105345968580472    0.0034231469695357
    -4.9516382366460236    8.5453143407308563    0.0019136854178829
     0.0037743912066395    0.0046718982558303   10.9189789243904105
 Ge  Si  O  
   3  21  48
Direct
  0.0020249182943299  0.2291403856696611  0.1645657585060524
  0.5040550999705422  0.2351495980516397  0.1642451516082291
  0.2672299197139342  0.7702885839870101  0.5020862839091927
  0.0007615384395088  0.2348170937411253  0.6659949022249509
 -0.0030670005685917  0.7346334024475580  0.1688568072786209
 -0.0020645293552909  0.7352123228703750  0.6708430417646679
  0.4977413879629309  0.2334521425118645  0.6637202621585936
  0.4946462738548117  0.7325787481601200  0.1681599904231957
  0.5049687843121035  0.7355206501605780  0.6684002151617451
  0.2720798486782749  0.2684540608861778 -0.0051316826175846
  0.2650126162297231  0.2686036921519818  0.4974442083879067
  0.2626708498090317  0.7662426341723891  0.0011903362762540
  0.7702925678620374  0.2655833437620804 -0.0038503769895142
  0.7636928948804380  0.2619181664753999  0.4987979075268003
  0.7610660401738947  0.7635118371379229  0.0025862061543801
  0.7676675239430881  0.7657782055903728  0.5034634128867955
  0.2297122760791991  0.0033866641944922  0.3318879548309489
  0.2369239985086488  0.0009185320092839  0.8320146460843861
  0.2344815854634945  0.5002238459640197  0.3334328054413942
  0.2336553614467506  0.5024143868777550  0.8324710038474837
  0.7297782989681212 -0.0064042870716583  0.3341683771466981
  0.7393348266621553  0.0000394924955619  0.8339407166070167
  0.7378963682777449  0.5008063559376241  0.3364855375849561
  0.7286086894834999  0.4983056517555739  0.8341388592964117
  0.0689921878996198  0.3628374619146912  0.2836207978162822
  0.0750065121867279  0.3692823910992499  0.7699648182237913
  0.0680735128255071  0.8635712153665787  0.2776627418529751
  0.0734657335070725  0.8671757363227975  0.7764421631258128
  0.5712470365001439  0.3700814644684233  0.2827588659919942
  0.5707896566977192  0.3649918915555809  0.7703592370167945
  0.5657971980695981  0.8587632158265657  0.2786982949823709
  0.5790754610728706  0.8651164167218981  0.7755699021979688
  0.1501801984628437  0.2019914630572879  0.1083360186843901
  0.1331141275828909  0.2081991596221562  0.6033678221023172
  0.1305090314856477  0.7102175985566090  0.1062739136902273
  0.1284135578884069  0.6985201549889970  0.6176679514735094
  0.6497781657212189  0.2026266818275968  0.1105653776146298
  0.6302642420030429  0.2055093064689756  0.6031025926298228
  0.6291569195030324  0.7080437218541922  0.1076979856532444
  0.6371581081823426  0.7044338176432801  0.6107588280461442
  0.2958737177036093  0.4342583223818245  0.4431596800810402
  0.2886651174813141  0.4271752874816290  0.9392917327991362
  0.2926598567290277  0.9451226956877381  0.4458504705266280
  0.2939193297295269  0.9286285918729535  0.9399845670615014
  0.7963382917487990  0.4258613776177200  0.4407831666842992
  0.7857024152918463  0.4234533971714808  0.9397728192747569
  0.7888738880592370  0.9246327077492813  0.4432940755039485
  0.7943600709044853  0.9270462500969703  0.9425692758242389
  0.3542115481041495  0.0607655775952163  0.2204157681002851
  0.3663299489963646  0.0707245778370611  0.7240758976092727
  0.3611202506942293  0.5675157902522661  0.2235408709613983
  0.3658026639999573  0.5768650362245324  0.7266659957915856
  0.8543084961609477  0.0540478877424876  0.2222863312686401
  0.8721013173325908  0.0730602622583023  0.7288526410901445
  0.8650639492543647  0.5712033566841842  0.2272928915952402
  0.8607177739778948  0.5758011820869805  0.7292201413312424
  0.2074953092422152  0.1438967839086409  0.3853217180738130
  0.2125113249982689  0.1383685143406195  0.8875396720693254
  0.2042763737420620  0.6366485387662602  0.3831525883820341
  0.2066925224871863  0.6355031808087546  0.8941726849667334
  0.7081045113885370  0.1327295167742503  0.3905774151259252
  0.7099733694794984  0.1343692289291559  0.8896000768498170
  0.7138053705516998  0.6360414738651468  0.3966545558154158
  0.7017246127776556  0.6312732204973233  0.8964908913623935
  0.4409317844529526  0.3046846629521864  0.0438167974273575
  0.4228570595559281  0.2901007408203871  0.5578580910808628
  0.4218226835090960  0.7929593728137442  0.0633350142202510
  0.4429010412414951  0.8016989796022727  0.5594962014401420
  0.9384419821940350  0.3000463047350099  0.0452811979412378
  0.9217067192469794  0.2869917260257255  0.5608138459052383
  0.9205942226577447  0.7903731246818698  0.0635732990420600
  0.9299206876267111  0.7962151225028150  0.5624999881895282
