Ge Si O 
 1.0000000000000000
     9.8945079848299624    0.0209431335598807    0.0083187814700537
    -4.9291203838417283    8.5603225494304009   -0.0030401336356132
     0.0092121933208956    0.0014037665575654   10.9245699570081793
 Ge  Si  O  
   3  21  48
Direct
  0.0051343009164512  0.2328808802066757  0.1650535426215065
  0.5075735269304218  0.2319917415596317  0.1662348948220931
  0.2287683895592941  0.4998821085826914  0.8339301822284971
 -0.0051834086188639  0.2259042976539600  0.6644849090014810
 -0.0042276581641230  0.7363102159687903  0.1693445126029092
  0.0024240675993625  0.7407487295763725  0.6695225474539891
  0.5018498717580713  0.2355489622914013  0.6649649402181185
  0.4928223692963485  0.7327074475892091  0.1668937287452546
  0.4993696674666049  0.7357689175358976  0.6650861986322407
  0.2743699559089157  0.2685576711019064 -0.0002373478543354
  0.2653629173626281  0.2652777920240018  0.4996450195630629
  0.2616715326415200  0.7715434440651308  0.0017852507420562
  0.2645028636023836  0.7676128901213932  0.5025853420182881
  0.7738432051328581  0.2651407982613392 -0.0058023414032903
  0.7641756949197482  0.2613157510598381  0.4969410312503083
  0.7588895169163233  0.7619334742040367  0.0017250981835880
  0.7677595182854760  0.7688606396456831  0.5015062106361267
  0.2315223021949714 -0.0016033437340055  0.3335750801777864
  0.2388179006338504  0.0067144058424093  0.8338337936909093
  0.2338192256478403  0.5010515851607582  0.3369170521704080
  0.7301006027287916 -0.0041000988630497  0.3307809493283236
  0.7333467712041760 -0.0046107372040672  0.8311288211627577
  0.7385308049200425  0.5011914597280159  0.3369743938540336
  0.7355513198341435  0.5007301980354780  0.8334306028186943
  0.0680618779897470  0.3685211161501786  0.2831101239086026
  0.0561881226703182  0.3537388847931129  0.7736248295116839
  0.0676491000074421  0.8658571661134618  0.2770943934385922
  0.0783264080557863  0.8727534200376701  0.7748468136567920
  0.5728291168087029  0.3689753728735171  0.2832463768784905
  0.5784527485949715  0.3691897857359590  0.7688067047649524
  0.5668728162542338  0.8618567704827448  0.2748214595748296
  0.5699847918404932  0.8619441154886600  0.7751045252477928
  0.1536930822755311  0.2017821272754993  0.1141441329846266
  0.1334962444150733  0.2054414815208585  0.6059384506459801
  0.1312980377995237  0.7130911892736884  0.1084210418594153
  0.1339480300942686  0.7098446542201532  0.6094599189034073
  0.6556567128899441  0.2034468747018081  0.1104282836864914
  0.6319346951074977  0.2045859866027078  0.6024060996781716
  0.6257684002166775  0.7050047485583154  0.1061194667514793
  0.6349823958406307  0.7111876867950883  0.6061060554376755
  0.2936443422392440  0.4276821181071325  0.4418404002123262
  0.2953983074215838  0.4331171215244670  0.9533956021069837
  0.2873772259981723  0.9267991473238120  0.4427695061844195
  0.2933331387439636  0.9360864164911047  0.9449954622416205
  0.7977398607668843  0.4264958254871957  0.4411932631161719
  0.7907948902202395  0.4238549871719902  0.9386639740312703
  0.7902672210482873  0.9267868279167037  0.4389935083312475
  0.7891344273011062  0.9230580450670616  0.9397248278165894
  0.3596226008134785  0.0581266148830947  0.2244385313685885
  0.3711300016272077  0.0758306410226317  0.7282057463820933
  0.3598459359823606  0.5717482146031363  0.2268877064316905
  0.3664281838184046  0.5692658128562939  0.7172973719745941
  0.8561204232188230  0.0578859728153043  0.2202839264835319
  0.8625022762828333  0.0625147367241962  0.7226353069012735
  0.8654018191511202  0.5726527267799911  0.2276332595194172
  0.8696112460571543  0.5805715121268631  0.7299729111036842
  0.2102070998701232  0.1376192131002642  0.3904024858355304
  0.2121351128957286  0.1439926824024149  0.8881592753022264
  0.2086509510983088  0.6359946077636767  0.3970894009393168
  0.1990770672749637  0.6467028627372645  0.8902682179167078
  0.7062048367270963  0.1337588713386096  0.3875287315461842
  0.7106007690914373  0.1338069606451573  0.8876950928350573
  0.7141577375930632  0.6364432522870385  0.3969870239631892
  0.7040343644128936  0.6304413282172906  0.8959569446442771
  0.4423531896795569  0.2981936501492835  0.0452210033453093
  0.4248989172246415  0.2907862881816163  0.5598723816606688
  0.4199754621978432  0.7913422804751242  0.0605714188491610
  0.4270193045553827  0.7979390034860570  0.5610703192614360
  0.9432099139766539  0.2998476142169779  0.0418348540610286
  0.9217426737335148  0.2816254368638852  0.5567616701441940
  0.9189977418286090  0.7914964057416884  0.0640417443025409
  0.9284451176100531  0.7989522104551581  0.5636250415883459
