Ge Si O 
 1.0000000000000000
     9.9203637659949315    0.0091939801500706    0.0046965626304747
    -4.9522262210098864    8.5469162192503596    0.0010380902650960
     0.0051811178450833    0.0043584947525496   10.9296079901302576
 Ge  Si  O  
   3  21  48
Direct
  0.0055605922712724  0.2279793893149361  0.1672240879712779
  0.0000376786571524  0.2287298276053722  0.6666763600597960
  0.7708955081249578  0.2690907063368476 -0.0043186978679013
 -0.0037007304569862  0.7407766340651252  0.1648065610095608
 -0.0012577059490972  0.7418939920453894  0.6652289638372794
  0.5060734963820407  0.2352550712038151  0.1671152360953018
  0.5090471256808058  0.2386064037441256  0.6652810547166941
  0.4921951899519302  0.7316716374194994  0.1698067443138728
  0.4906091178491560  0.7269839195564737  0.6685928239079543
  0.2765389154526150  0.2649731197944931  0.0004284918033480
  0.2742217797621875  0.2664901167438591  0.5007118385525555
  0.2616016860668016  0.7647690766804616  0.0000466045385398
  0.2612874724301193  0.7642041191827683  0.5000615039972781
  0.7690686192812026  0.2677603546522115  0.4957050539762696
  0.7571553266935783  0.7678043096868991  0.0016673165272857
  0.7580395760768737  0.7639646726707953  0.5019974591162627
  0.2376758823513965  0.0021238998025078  0.3309791202282253
  0.2427279050604325  0.0038295326666256  0.8294355393030316
  0.2350692635131243  0.4972182894371586  0.3389568123501746
  0.2331288509497013  0.4950449809018603  0.8393044876577281
  0.7278820288061415 -0.0044456705889873  0.3331964970462545
  0.7257323006404486 -0.0064464544072778  0.8304344306169276
  0.7348845173538879  0.5028570332337994  0.3328558125859595
  0.7344767772345079  0.5089736920176153  0.8332944098542784
  0.0705802120058544  0.3604893047719059  0.2872454956059606
  0.0669192324600599  0.3609912301472443  0.7870464165031580
  0.0753734676281667  0.8722772981861048  0.2706221704569949
  0.0802753406992456  0.8752165530099026  0.7689917920973304
  0.5750452979733898  0.3685466163684706  0.2722878430713501
  0.5783081566285910  0.3697791624291114  0.7721859442128753
  0.5643727630231953  0.8604282619839621  0.2781559872104445
  0.5634017408554227  0.8547178731391373  0.7773904956491691
  0.1525024754178771  0.1977631850287677  0.1125646653796434
  0.1475091608143593  0.2009930226301634  0.6106289299709859
  0.1261973563900055  0.7112326953232857  0.1017822463759467
  0.1265580303189858  0.7088831060831071  0.6026021427705527
  0.6399228287759063  0.2013010390035026  0.1171374610973871
  0.6433073173910623  0.2120104522157711  0.6061443379861220
  0.6253854530173157  0.7060059484736645  0.1075271287389044
  0.6243994684151744  0.7019222350637290  0.6065123991841805
  0.2975958887400791  0.4287107625038407  0.4457554141555824
  0.2957589745817855  0.4256587241413827  0.9455642096040565
  0.2919621883388320  0.9249719862124989  0.4369847166373312
  0.2951568547029724  0.9256251104358290  0.9355754912492568
  0.7938286777073901  0.4285043135737532  0.4371337807480465
  0.7962172099603996  0.4455268217927001  0.9438623733914205
  0.7837790518551754  0.9247945187418352  0.4427235647881815
  0.7828641726200896  0.9302135512815510  0.9446295382466753
  0.3690734770965379  0.0749514206935670  0.2252137350271254
  0.3753569140340361  0.0767497174311936  0.7243564851768184
  0.3606410405949161  0.5680530051751886  0.2284128039399472
  0.3575866589204441  0.5642258775012123  0.7275726692389846
  0.8534636082497122  0.0539544363716004  0.2222570657542282
  0.8529518612072180  0.0506732255234244  0.7207860495841539
  0.8652664446357294  0.5799102827973929  0.2266226525170715
  0.8661343570593634  0.5832396554396068  0.7279863086003238
  0.2151197470778863  0.1384268636104811  0.3918255589648193
  0.2183435954854473  0.1388414736642976  0.8903086919887235
  0.2074854729851105  0.6320152358190834  0.3953552391333546
  0.2082386484258079  0.6311829693141238  0.8965434382197025
  0.7084099621414220  0.1359724577791837  0.3892687586176881
  0.7002148843586187  0.1348534671053202  0.8762220803590052
  0.7052607789814652  0.6338952517708896  0.3949617165898518
  0.7024277338720396  0.6408257055470059  0.8916129733722423
  0.4402072793050023  0.2926116159926308  0.0545513847677868
  0.4368930894828080  0.2947328667923168  0.5566986879977764
  0.4184350080700602  0.7915577729703405  0.0659225957881010
  0.4181183625890431  0.7889987286633831  0.5649208188664865
  0.9511336917651811  0.3037732884491198  0.0456236382131015
  0.9341372430352559  0.2994651696771331  0.5495045480265704
  0.9183561691687548  0.7970202954224834  0.0613092064491536
  0.9205714769503113  0.7973967901793524  0.5616198354738932
