Ge Si O 
 1.0000000000000000
     9.9002944088584020   -0.0000001403895601    0.0000001220750976
    -4.9501473260101116    8.5739064014647344   -0.0000001227743431
     0.0000001347038379   -0.0000000785389293   10.9182721513940830
 Ge  Si  O  
   3  21  48
Direct
  0.0000000220509922  0.2260031852622793  0.1666663922615869
  0.2739972758991391  0.7739972762397347  0.4999999987354210
  0.7260031836413671  0.5000000223917318  0.8333336090028655
 -0.0000000815195560  0.2363628061333138  0.6666668694576253
 -0.0000000936115383  0.7379435404798891  0.1666669170229554
  0.0000000536457784  0.7348582823001706  0.6666664259709385
  0.5046954250570712  0.2379304954283911  0.1636630653712923
  0.4913698141490782  0.2276709441917467  0.6630289832383237
  0.4953046860049741  0.7332352016762197  0.1696702942683634
  0.5086302298627300  0.7363011244380967  0.6703042785553747
  0.2723295810670142  0.2636992867188038 -0.0036373430554317
  0.2620689566799423  0.2667643773540663  0.4969961500553159
  0.2636366421601554  0.7636366415846975  0.0000000016033091
  0.7651414122528846  0.2651414123055782 -0.0000000007531227
  0.7620568684471120  0.2620568683228133  0.5000000011491910
  0.7636992866053408  0.7723295794801014  0.0036373428141528
  0.7667643773907648  0.7620689559002940  0.5030038495608450
  0.2363011222623353  0.0086302297312307  0.3296957217059668
  0.2332352030994587 -0.0046953147876964  0.8303297047016300
  0.2348582837705303  0.5000000536985089  0.3333335747818915
  0.2379435376833729  0.4999999062642603  0.8333330818275313
  0.7276709405604421 -0.0086301871931194  0.3369710167413189
  0.7379304968645098  0.0046954250331049  0.8363369360422850
  0.7363628073798568  0.4999999179051753  0.3333331289389795
  0.0691661331044111  0.3627381415618834  0.2834811281346214
  0.0782179832300284  0.3692998953234364  0.7708584722526290
  0.0770060943054118  0.8700474196352981  0.2722050081803604
  0.0672743803221111  0.8621290711978408  0.7764314489733753
  0.5767631436259754  0.3700383718909995  0.2693640687196421
  0.5519523924436612  0.3531827982751304  0.7742462289617223
  0.5627958570564541  0.8584093700316286  0.2810017483109788
  0.5797325165219190  0.8662677826158443  0.7774964550307709
  0.1468173480928192  0.1987696290589171  0.1075795104092222
  0.1299615475575264  0.2067247546570581  0.6026976651987085
  0.1306999729693321  0.7089180740517462  0.1041921003307515
  0.1372621079296489  0.7064280451870136  0.6168144441590323
  0.6378708960759979  0.2051458657802004  0.1097646781997687
  0.6299528835531019  0.2069583740567533  0.6055384812796049
  0.6337324197714751  0.7134642919776532  0.1108298498480736
  0.6415906029636169  0.7043868786452701  0.6143351185781039
  0.2948546322079477  0.4327253609165361  0.4430982655155405
  0.2930410820461252  0.4229941373127194  0.9388717995157251
  0.3012298602264695  0.9480473631005875  0.4409127271023735
  0.2932756143802985  0.9232370926124178  0.9360310968933243
  0.7910817961145351  0.4217822000935011  0.4375251758406123
  0.7935718306217927  0.4308335425524302  0.9501479543341531
  0.7865356617700673  0.9202677080569426  0.4441634789562403
  0.7956130252181158  0.9372040303894204  0.9476681020529887
  0.3662677807301031  0.0797325164297344  0.2225035458121151
  0.3584093720940110  0.0627958596968190  0.7189982507397255
  0.3621290698071862  0.5672743826152901  0.2235685509664031
  0.3700474185243091  0.5770060934528940  0.7277949900631971
  0.8531827965305937  0.0519523918294495  0.2257537710178929
  0.8700383701139812  0.0767631456281747  0.7306359308953944
  0.8692998967351382  0.5782179864206268  0.2291415269035729
  0.8627381398258132  0.5691661323878217  0.7165188730807301
  0.2043868795984248  0.1415906021800774  0.3856648835445219
  0.2134642878574486  0.1337324168208883  0.8891701500560399
  0.2064280432861356  0.6372621047837699  0.3831855568918138
  0.2089180728557377  0.6306999728274318  0.8958079017988135
  0.7069583713081400  0.1299528815247336  0.3944615218536170
  0.7051458632578257  0.1378708931600632  0.8902353229713178
  0.7067247511676419  0.6299615438008144  0.3973023352042910
  0.6987696280839176  0.6468173459920060  0.8924204921498630
  0.4372040347666460  0.2956130267493710  0.0523318967732298
  0.4202677067952508  0.2865356594435036  0.5558365202963188
  0.4232370948819620  0.7932756146699128  0.0639689030885154
  0.4480473636121339  0.8012298603815970  0.5590872703588574
  0.9308335430807733  0.2935718297403758  0.0498520433993539
  0.9217822022299775  0.2910817966974870  0.5624748228733266
  0.9229941357397213  0.7930410795560086  0.0611281991070816
  0.9327253636029176  0.7948546333692336  0.5569017333731902
