Ge Si O 
 1.0000000000000000
     9.9135165574413691    0.0096797096148092    0.0037992411304467
    -4.9483808095170980    8.5486489417403675    0.0021716266444650
     0.0041942702256571    0.0052340253836044   10.9233335986740592
 Ge  Si  O  
   3  21  48
Direct
  0.0046374333376752  0.2354366647579036  0.1656809679192955
  0.5011344306503152  0.2325222679601329  0.1637293412896051
  0.2633945600402586  0.7669302967107587  0.0014919778894598
 -0.0013305575021254  0.2295421731155737  0.6646659790394196
 -0.0062098826220284  0.7317266144824107  0.1710188687230318
  0.0008514538262576  0.7377479624398269  0.6691382991741986
  0.5001915188232848  0.2356321538650215  0.6640354256419787
  0.5010321268994580  0.7322983135771352  0.1683725407255851
  0.4988208080471197  0.7366420865129468  0.6682440173848756
  0.2715178594557130  0.2718755993891453 -0.0051502611932233
  0.2653134947862878  0.2648681053558521  0.4971283720023748
  0.2659391723081416  0.7692912725025032  0.5023228164321508
  0.7701705993968115  0.2654713347225415 -0.0037020167148475
  0.7636379597261572  0.2617871883634918  0.4985928648878765
  0.7644067268337842  0.7628920941811751  0.0024078231945973
  0.7646846491319754  0.7664656970100833  0.5033589975796968
  0.2300421091891689 -0.0030909601111835  0.3321134456950449
  0.2364073010110772  0.0071303688483118  0.8321709424640552
  0.2369437946354188  0.5031532157625649  0.3357647556368872
  0.2312432173051090  0.4997295536735048  0.8302160073612097
  0.7329703660104230 -0.0038268717843615  0.3334792974638226
  0.7367690970014600 -0.0022425468582589  0.8342143534217679
  0.7317579621498488  0.4983832820932935  0.3375165493454795
  0.7339943509403238  0.5003786495739140  0.8331009270693975
  0.0697418872500295  0.3710484900264656  0.2836962928032257
  0.0742852646934790  0.3620339570790727  0.7695987912127363
  0.0648552076054601  0.8617764394519022  0.2787873756400538
  0.0766214160861440  0.8686780896177597  0.7755580339916112
  0.5656865403382713  0.3656468657455181  0.2839741190539518
  0.5760453433021805  0.3692444111131450  0.7684242474296799
  0.5707000403956580  0.8594582145080030  0.2779903313901627
  0.5743191516358155  0.8647543241772510  0.7764667017384304
  0.1524079684464450  0.2071262596116558  0.1100945062104933
  0.1310185681064423  0.2031400848658496  0.6013273602480608
  0.1270738469765900  0.6985770277810581  0.1187142516473061
  0.1321823916550649  0.7095946233227407  0.6065477513062187
  0.6492275133953564  0.2031499682509695  0.1103925467551003
  0.6305749586157189  0.2043472403038668  0.6033407910633103
  0.6354640144235265  0.7045282999054691  0.1106656765732162
  0.6312601134970162  0.7088597203366219  0.6075666455636407
  0.2958567927561291  0.4288630067796521  0.4406045900589209
  0.2886158102901195  0.4321697052714457  0.9414386261109654
  0.2900190740872642  0.9287234068313996  0.4411370735301004
  0.2966316280973376  0.9448111715625203  0.9451035341917440
  0.7936518751133730  0.4250133320375158  0.4408349729556611
  0.7871825773939196  0.4237057595790044  0.9396832475879110
  0.7922151912381501  0.9270855816071718  0.4422178320608989
  0.7922101208659079  0.9246836888056407  0.9426633075464111
  0.3537221880905511  0.0558859050265065  0.2198183702333477
  0.3672506966296042  0.0754541910164817  0.7255369890674852
  0.3621993610025894  0.5712608917918334  0.2247405091154326
  0.3647896564827856  0.5739011742945700  0.7255828928372937
  0.8589696491947453  0.0592158530780051  0.2229809397332396
  0.8677508504411140  0.0684359473473071  0.7272020041945806
  0.8567681697123077  0.5700291601818439  0.2271950266556883
  0.8685726426112130  0.5766836721358518  0.7296060295000782
  0.2104671997418733  0.1375922848335602  0.3876218862431375
  0.2089090575616514  0.1442088031795326  0.8851836829194596
  0.2143920438045450  0.6392673897551761  0.3959781168496447
  0.1961713590849777  0.6322720964501570  0.8824046592769089
  0.7081753891804484  0.1332243097038973  0.3900449184160497
  0.7104539990860618  0.1339454932669804  0.8901478511201923
  0.7087046771102363  0.6338862069925109  0.3986191109856148
  0.7062099229541774  0.6330515984088397  0.8946635008696668
  0.4392741966455503  0.3031880969328019  0.0429905670142462
  0.4246200075363270  0.2912262663286290  0.5581887156361409
  0.4388057918953138  0.7966618916531338  0.0583701875081834
  0.4261661525672248  0.7991777458487462  0.5648407286626648
  0.9390435705441416  0.3020403712550447  0.0452436187071781
  0.9215806781213065  0.2855557837758337  0.5602674506215407
  0.9260079357458103  0.7903733130044261  0.0609028657454561
  0.9248269566047960  0.7956973690188271  0.5651284789803652
