Ge Si O 
 1.0000000000000000
     9.9156450343007787    0.0145011615189755    0.0014491909795227
    -4.9452583916067505    8.5487779188742117    0.0077859462879533
     0.0016052621431735    0.0108610606520535   10.9175549991170353
 Ge  Si  O  
   3  21  48
Direct
  0.0025695571793883  0.2355668953291710  0.1679871705116742
  0.0000326943400590  0.7369811722683950  0.6670701084205145
  0.2663988878139076  0.2663443805623273  0.4993328542712158
 -0.0007564420237610  0.2335750946739810  0.6699061788944228
 -0.0026694114239921  0.7309991533049336  0.1658598207120493
  0.5041067545467196  0.2357741857976133  0.1669760077057056
  0.5024123742830829  0.2302681570330964  0.6669935490022190
  0.4948732094630365  0.7335123540690516  0.1655473056644819
  0.5007272684427925  0.7355019827833933  0.6650384687750105
  0.2761956245963585  0.2726223218620136 -0.0000571932686598
  0.2624764056659569  0.7643502319448687 -0.0020285101163245
  0.2724583977874786  0.7739718467157773  0.4989148656167013
  0.7636759152241850  0.2640710369373116 -0.0004406033863782
  0.7670792030715264  0.2630920861709204  0.5019539079939337
  0.7600049703849691  0.7614312105839093  0.0007161144887966
  0.7604648239921263  0.7624870455147906  0.4981356028836577
  0.2351685414534168  0.0005907432093777  0.3291234158623273
  0.2383956941967829  0.0040492612234878  0.8342193703705001
  0.2363805811061020  0.5076955701850636  0.3354408783162005
  0.2363196027261689  0.5016447958659997  0.8321898530382983
  0.7274047269385063 -0.0037201634038576  0.3323787331328703
  0.7320501767663634 -0.0020837297437573  0.8349649340743222
  0.7357210639128723  0.4972036804932071  0.3360006067773054
  0.7279506834517293  0.4954031414309705  0.8341319982165442
  0.0700445126671238  0.3700638257527367  0.2869109370038683
  0.0749251166206155  0.3669017488408524  0.7744663385664708
  0.0768210002584056  0.8632387192812498  0.2704009383818732
  0.0694724153981545  0.8741513500772894  0.7837375791682867
  0.5756535692454541  0.3630118951094250  0.2761115908541940
  0.5677731315017176  0.3589316081870458  0.7757732411161837
  0.5654644295038708  0.8640768712033443  0.2728316017496549
  0.5731582999563247  0.8643338155839179  0.7732868318139543
  0.1483790491485197  0.2075200987545099  0.1091043195927019
  0.1299817905533037  0.1973114992100698  0.6165101496039065
  0.1278992446088470  0.7028390001094433  0.1015425898398784
  0.1459234557071276  0.7083026241949962  0.6090044715439158
  0.6380257548020782  0.2067425522783803  0.1101062776957301
  0.6387713083041336  0.2040820434726254  0.6110864453747288
  0.6279976569696734  0.7054314544358680  0.1062470073367785
  0.6335888990975150  0.7048053557567122  0.6078245158067463
  0.3008563170496793  0.4458809540825674  0.4459336212656447
  0.2962430402059316  0.4317746836283680  0.9406347294016968
  0.2932732231702750  0.9346985342334780  0.4418448682804256
  0.2940201659233368  0.9282666555581415  0.9404117437280957
  0.7933435703703280  0.4251880107052622  0.4438606416019343
  0.7856457774342703  0.4238514647188677  0.9415813480193580
  0.7812249659335497  0.9211831472578077  0.4394923781582400
  0.7894314219682930  0.9236787693857770  0.9411085046739044
  0.3676171966029742  0.0735852235996094  0.2235209041561083
  0.3640071435866753  0.0685591140935749  0.7231619467587457
  0.3604750830835862  0.5711867486026416  0.2237059783834173
  0.3651852718315912  0.5743614494044659  0.7239470265441382
  0.8558030180651294  0.0593141698715528  0.2236636525431077
  0.8639784596755167  0.0742979404991017  0.7300591968839334
  0.8669917879609806  0.5710264698343056  0.2296384253647198
  0.8556197958950826  0.5609217595737896  0.7249130501820428
  0.1988634918849937  0.1331722576294807  0.3795267492583776
  0.2213032774769499  0.1444201792194260  0.8920354966916066
  0.2148145386204460  0.6478329077611001  0.3888282259570284
  0.2081476536425496  0.6359319692230467  0.8898038693318067
  0.7083342949521376  0.1351239779363401  0.3924805856232499
  0.7023516578144848  0.1300454113430622  0.8951933858475455
  0.7042565341537809  0.6294467119676186  0.3934890267455255
  0.7036801935377446  0.6317723369384429  0.8927541420914832
  0.4374952437179350  0.3000823880861987  0.0594678734793996
  0.4409399518648465  0.2929143937351816  0.5551680601259757
  0.4221124606747523  0.7912994637992088  0.0588914787927179
  0.4332684639016948  0.7983122809173537  0.5570356784009363
  0.9315964206215107  0.3008363500025278  0.0503973180561567
  0.9284151722500189  0.2895831266897108  0.5600501796765314
  0.9186911805710790  0.7866583317520269  0.0622666146832843
  0.9286922873175847  0.8017159008881183  0.5498330258817987
