Ge Si O 
 1.0000000000000000
     9.8991801188974211   -0.0002501725005503   -0.0013506605280202
    -4.9498067153061971    8.5733166206100240   -0.0000000258698211
    -0.0014923746487308   -0.0008616563996336   10.9206138159758748
 Ge  Si  O  
   3  21  48
Direct
  0.0000000054083850  0.2313472785471195  0.1666666637298021
  0.2728310487956843  0.2704235942707992  0.4989062098643298
  0.7271689560711347 -0.0024074485334143  0.8344271260568696
  0.0000000001915736  0.2303082327976890  0.6666666679265768
  0.0000000004957952  0.7321709392973805  0.1666666677323087
 -0.0000000037387082  0.7417918771540085  0.6666666738410132
  0.5066011784544124  0.2390548271417497  0.1670389243427566
  0.5113612187424026  0.2375449158154127  0.6674482333388517
  0.4933988184957796  0.7324536454260505  0.1662944036195362
  0.4886387750593268  0.7261836911215486  0.6658851029359715
  0.2733160378780668  0.2667587653757709 -0.0000600843744037
  0.2624503524323988  0.7609605714319135 -0.0035057392632410
  0.2629835733188882  0.7699192614899627  0.4980272285950346
  0.7675622607304561  0.2730260898650627 -0.0015328821899083
  0.7707870162748375  0.2633044796432468  0.5003845829222507
  0.7608015422191108  0.7635458661833312  0.0049977746879605
  0.7579725622464866  0.7612624705300414  0.5025321615712535
  0.2391984619875756  0.0027443251942167  0.3283355494511093
  0.2420274438752817  0.0032899150317540  0.8308011629975177
  0.2324377419890969  0.5054638224158381  0.3348662252639695
  0.2292129823856247  0.4925174590414069  0.8329487659605156
  0.7266839660371481 -0.0065572649602581  0.3333934147476074
  0.7375496469674455  0.4985102114543921  0.3368390660648458
  0.7370164247181188  0.5069356781410608  0.8353061026857114
  0.0673238935072753  0.3656069891154773  0.2859507569210000
  0.0660137668701753  0.3567182404734370  0.7770945085522634
  0.0797180491752321  0.8660442274750707  0.2699915943038325
  0.0793969442218470  0.8755282998034479  0.7700486580853150
  0.5760744719939823  0.3668627847995677  0.2759880848439019
  0.5801527547236949  0.3696729961525954  0.7733602210740426
  0.5632944071319866  0.8619204151712005  0.2744977383241839
  0.5519284594522427  0.8497109172815976  0.7783162003903101
  0.1461935897974458  0.2023491452961223  0.1095064880343862
  0.1373218467570776  0.2017410493440485  0.6166802007824258
  0.1306478636635610  0.7040804641737619  0.1022661763681760
  0.1299029003998599  0.7125179854830418  0.6026086187102453
  0.6440583562535545  0.2154133577059144  0.1105132496807380
  0.6457329952367472  0.2078417392713765  0.6116943056513958
  0.6278139788550395  0.7035186422912677  0.1101352285638506
  0.6255846863228575  0.7028488424977837  0.6079723793767716
  0.3020581323255933  0.4471360005934899  0.4441290077516203
  0.2920168127921066  0.4243897996414655  0.9400633102101240
  0.2954323919241154  0.9336492521458010  0.4395309482691735
  0.2930658907727689  0.9222507715528199  0.9356027537631981
  0.7953413283204095  0.4237383179693658  0.4419577662357773
  0.7942966396120963  0.4362796151307324  0.9441141387935202
  0.7815115640576169  0.9190071389039193  0.4404428713680940
  0.7952119172720125  0.9309432200321425  0.9532372695906732
  0.3721860058950117  0.0757046700944230  0.2231980885541386
  0.3744152984307546  0.0772641563819040  0.7253609371243297
  0.3559416487710642  0.5713550026361768  0.2228200965940381
  0.3542670018388030  0.5621087329438197  0.7216390403789155
  0.8538064001311720  0.0561555643808874  0.2238268301910661
  0.8626781334690173  0.0644192070077516  0.7166531236328050
  0.8693521412217972  0.5734325906311035  0.2310671521345556
  0.8700971032399817  0.5826150676888580  0.7307247194321858
  0.2047880955332341  0.1357313030622400  0.3800960629955215
  0.2184884475823687  0.1374955828002682  0.8928904520382634
  0.2057033519215608  0.6419829599820606  0.3892192059957473
  0.2046586609231231  0.6283969799024380  0.8913755743569207
  0.7079831756004018  0.1323729789403368  0.3932700406185186
  0.6979418623119652  0.1450778589451742  0.8892043464770304
  0.7069341160336665  0.6291848868625608  0.3977305595052970
  0.7045676271732534  0.6382168681017851  0.8938023692474377
  0.4367055956557191  0.2986260127994256  0.0588355927320511
  0.4480715440359438  0.2977824583819123  0.5550171372771707
  0.4239255239163041  0.7907883100096632  0.0573452418519029
  0.4198472478576531  0.7895202477414179  0.5599731105657627
  0.9326761176553613  0.2982831205526379  0.0473825817275156
  0.9339862434403239  0.2907044909020027  0.5562388306209860
  0.9202819501248130  0.7863261821849460  0.0633417449060609
  0.9206030547595335  0.7961313508819311  0.5632846828859636
