Ge Si O 
 1.0000000000000000
     9.9174447921766848    0.0122905081895416    0.0081856576996605
    -4.9480913359095249    8.5499326225956160    0.0021764292261309
     0.0090195318886949    0.0080061248333279   10.9184180237658275
 Ge  Si  O  
   3  21  48
Direct
  0.0009502992617109  0.2309007047835203  0.1682163029950003
  0.5012715239368245  0.2317281411707493  0.6658499481885645
  0.2765594963033589  0.2682554337064862 -0.0016988812202202
  0.0071583747613497  0.2352990081141309  0.6664448305330318
 -0.0019137972520806  0.7381036713485838  0.1686396750874471
 -0.0077448416807945  0.7303364345507952  0.6670960873464165
  0.5113199922617051  0.2332442910199261  0.1662507281684844
  0.4912716095338878  0.7339118930341963  0.1663065208964966
  0.4976357328558297  0.7385835547862920  0.6666575392889886
  0.2684835779645504  0.2690909640524644  0.4966629658820569
  0.2586356427744262  0.7656084270871850 -0.0004890969622097
  0.2629657560740096  0.7700193445992589  0.5012532183136416
  0.7702908893399000  0.2657746997025632 -0.0022426796377411
  0.7739789760569218  0.2643352017405491  0.4998518716469277
  0.7609892210446838  0.7668598446268869  0.0026049329009793
  0.7574926409017813  0.7590147019327010  0.5007724281671688
  0.2386355075529262  0.0051542162214277  0.3309478661514816
  0.2290834283546968 -0.0057740102348868  0.8289911351280906
  0.2318598120169386  0.5030739712293693  0.3354425135690924
  0.2343909541086900  0.5042741464145064  0.8343201743105411
  0.7270843866440145 -0.0072208466931433  0.3327360331965888
  0.7387918188004360  0.0028110052129283  0.8314966927442342
  0.7378197341970338  0.4973417793382319  0.3365654860448362
  0.7325141117493721  0.4998558071388652  0.8374459878045701
  0.0646352715563083  0.3694772497600956  0.2844057530315351
  0.0778865822628554  0.3655444766398738  0.7738429276916409
  0.0776002811785570  0.8713096023991626  0.2726311507142309
  0.0652285660829997  0.8584939927317129  0.7756053273258848
  0.5809985293457378  0.3618588105137928  0.2744042153733789
  0.5660703625444856  0.3664908682336129  0.7847320525498651
  0.5625371164074316  0.8614297738700302  0.2760026214655676
  0.5781385754576233  0.8705703784442201  0.7714541977483844
  0.1469995437884281  0.1948721729716194  0.1208678057206202
  0.1415814056674689  0.2087279868609823  0.6067704208897403
  0.1268715816682088  0.7070268475568073  0.1049477320455812
  0.1274208267788060  0.7078557774540095  0.6044923975311834
  0.6462711503391591  0.2041340553210512  0.1103259099663323
  0.6484307987930850  0.2030214934168246  0.6107256955287246
  0.6257933003132619  0.7089582690551156  0.1056831620493522
  0.6249501787096111  0.7035648515878419  0.6052734941883596
  0.2920753292193254  0.4307948335228061  0.4407081930448761
  0.2988277230666305  0.4431240220436686  0.9451811504053257
  0.2922529544789955  0.9319251551877753  0.4408016493162092
  0.2861464508513565  0.9277830820715312  0.9410723180914630
  0.7974874466435888  0.4254799669170931  0.4427919732749094
  0.7920307832457479  0.4272128498912304  0.9429316721850456
  0.7841931162202558  0.9185629685429585  0.4386867253866361
  0.7916555643052848  0.9283876041625423  0.9406556573585254
  0.3708196206844220  0.0748227405101045  0.2246038860473508
  0.3556050092665430  0.0523598081820196  0.7187401551016124
  0.3571909442279107  0.5708846151892846  0.2242702998184929
  0.3643874869862537  0.5789481624948740  0.7276693694940077
  0.8517335535018318  0.0544026416697464  0.2215562192893074
  0.8724231417605516  0.0747120340470157  0.7266967316377837
  0.8694083631612435  0.5771505849271771  0.2314510355954991
  0.8586667276690548  0.5682758470524929  0.7266450651707282
  0.2108060166590839  0.1399162800632160  0.3885486294304560
  0.2073744620504399  0.1366963861568306  0.8772504902143289
  0.2104229702592814  0.6409611231672667  0.3937339885584484
  0.2021998476578713  0.6364377930499169  0.8914331158871757
  0.7124966893923509  0.1344388519425797  0.3920607996188364
  0.7099612439206490  0.1369473196001765  0.8892411406342831
  0.7028114766991054  0.6257542739843333  0.3965852750543477
  0.7089701589042513  0.6363172731318369  0.8962698644550834
  0.4526578852938826  0.2976676227106452  0.0534941168961613
  0.4346267450473568  0.3014484738553405  0.5484075348789003
  0.4185332000794264  0.7931200206610191  0.0605618157466316
  0.4226908263517223  0.7981886909780609  0.5631468684278284
  0.9377953958114714  0.2980267203639345  0.0463704335860540
  0.9356539668445540  0.2917181082469799  0.5574014484243653
  0.9194802728669699  0.7945224966144867  0.0660804444603834
  0.9176757084143543  0.7890926573591295  0.5626647881412341
