Ge Si O 
 1.0000000000000000
     9.8955884120096762    0.0222042770431439    0.0049571867700083
    -4.9285748891614682    8.5604210672439702   -0.0048360307388132
     0.0055069116189084   -0.0030260271072216   10.9228627892957455
 Ge  Si  O  
   3  21  48
Direct
 -0.0008258587498127  0.2263715733146303  0.1651226454835056
  0.5049917997632728  0.2354604055500391  0.1650211513606777
  0.2331502636619803  0.5007368429255770  0.3365666262631384
  0.0011729342262740  0.2333644238235391  0.6652663996813198
 -0.0018781619652914  0.7364975159376854  0.1695915876164891
 -0.0001206118249559  0.7394038307646600  0.6691596258883646
  0.5036544332666338  0.2319918998661171  0.6662582973957729
  0.4958688220519537  0.7324112771590430  0.1646542568172591
  0.4968090606181912  0.7361950285122202  0.6667649014129001
  0.2715841032635387  0.2688371101210731 -0.0032255755761799
  0.2678159338353114  0.2653182923762809  0.5019823199939956
  0.2610411688614995  0.7647106372241040  0.0017044287725457
  0.2645760333401521  0.7738074084776875  0.5019969775603951
  0.7710723714457243  0.2651935162558848 -0.0046626649825446
  0.7663727877242210  0.2612225558612754  0.4969340009332402
  0.7641451675554085  0.7652178209180773  0.0002506855868835
  0.7623453770836874  0.7653508472936990  0.5028785572249632
  0.2321008663762603  0.0025555545933810  0.3336457445828135
  0.2383244279065408  0.0022645175576836  0.8337278096513360
  0.2306356398065063  0.5008952113858260  0.8334638910406018
  0.7272054238070255 -0.0079663872089455  0.3312389890209972
  0.7365482785121803 -0.0001208123848800  0.8313716420068767
  0.7383585019689928  0.5011933587546026  0.3368597950131568
  0.7355764857071481  0.5005135531649381  0.8334226089557869
  0.0518859931561215  0.3549118939925273  0.2880400023792587
  0.0732372946219498  0.3679138857679888  0.7693087843366766
  0.0697304742460801  0.8667636377547708  0.2771780162014706
  0.0766589982931601  0.8711060866064086  0.7744684981361876
  0.5721310620566542  0.3710048017196134  0.2827417852399176
  0.5785761592367906  0.3673529326469669  0.7693882586897393
  0.5630355239347143  0.8565956223238995  0.2767059249422034
  0.5754259733317221  0.8679714844849327  0.7720028938637399
  0.1522824798198238  0.2043357952011675  0.1120498491215623
  0.1348517659388985  0.2042865927399668  0.6071873806230831
  0.1319773319298211  0.7094278231907150  0.1093358866711858
  0.1324836747598504  0.7121398048695671  0.6074863328167354
  0.6514677324512153  0.2040168484367213  0.1102497264888829
  0.6358096414283080  0.2036990765911046  0.6041175309991742
  0.6325700518948358  0.7100868511615417  0.1053562069238310
  0.6274459174702250  0.7048598476935860  0.6060734633024162
  0.3043001320141733  0.4350556094041214  0.4538968373744103
  0.2863071873913642  0.4260555503947959  0.9401245495274605
  0.2900717561889579  0.9360669003311931  0.4456160553921993
  0.2903527514969329  0.9268021823525089  0.9424899896790785
  0.7966178269218224  0.4250115029409373  0.4405737532496298
  0.7904492516266765  0.4250119752954263  0.9400755606503769
  0.7861078207268957  0.9239153148897407  0.4410117440651973
  0.7931020770103167  0.9260807659623070  0.9384561372944986
  0.3582562928324493  0.0612132929325918  0.2233242378836373
  0.3729312444477678  0.0725112840713927  0.7298678161029430
  0.3636280533999727  0.5641956171290402  0.2151542185778263
  0.3636907147899949  0.5777982144860453  0.7289605709981926
  0.8506837156774079  0.0493882841179345  0.2186946209539440
  0.8691450552683347  0.0729673134755608  0.7263211500910394
  0.8659043997853991  0.5740097508869820  0.2281686743707262
  0.8694107379262170  0.5780524029489389  0.7296063049833138
  0.2102794079633337  0.1429238033223214  0.3884638501815537
  0.2117209249009216  0.1383608082560548  0.8897152546134312
  0.2061592812907223  0.6499929528358273  0.3903882464343817
  0.2015557157093343  0.6330978087236214  0.8951325448026616
  0.7076842809052709  0.1326375913986992  0.3879717413088282
  0.7078919782642382  0.1342307148023992  0.8886086727167324
  0.7121778282595651  0.6348852619620667  0.3974421153498969
  0.7068098176070686  0.6329743762743961  0.8944628097377317
  0.4408635051535141  0.3041567234266874  0.0446383632904624
  0.4255970184274901  0.2842711497439715  0.5602001059675689
  0.4229370965243957  0.7925601632007517  0.0596621978065763
  0.4235782402761917  0.7959385390337389  0.5614406902267680
  0.9387638065569180  0.2961012697547654  0.0429246676333794
  0.9262064857059127  0.2861980143718966  0.5567234808917202
  0.9237703388094631  0.7923874275508561  0.0623521380574911
  0.9229499333258756  0.7972484662942698  0.5658456573414858
