Ge Si O 
 1.0000000000000000
     9.9208943988794225    0.0375395873796946    0.0144449375328793
    -4.9279369583898669    8.5354370954799119   -0.0000000148800238
     0.0159141066813883    0.0091879888237196   10.9176378387476856
 Ge  Si  O  
   3  21  48
Direct
  0.0000000020341386  0.2321747347440568  0.1666666710231091
 -0.0000000009077381  0.2324628142267643  0.6666666712607739
  0.0000000035292851  0.7375553943103816  0.1666666731303612
 -0.0000000017984487  0.7380955124606091  0.6666666701280058
  0.5013320717909145  0.2332691675779403  0.1653416894993084
  0.5053630479612550  0.2363279775847348  0.6653569955089198
  0.4986679151430489  0.7319370887696490  0.1679916475954350
  0.4946369338302510  0.7309649206007941  0.6679763371405123
  0.2709203505007771  0.2651101348796359 -0.0009906361915617
  0.2745643864093897  0.2708907706477952  0.5000800637959446
  0.2719416039477648  0.7687523601919510  0.0000493247031933
  0.2651637075316625  0.7680196200828923  0.4999698265269338
  0.7636544893528199  0.2658513437580894 -0.0024608726842498
  0.7638769475130169  0.2636772091471338  0.4969769469060529
  0.7598001815383520  0.7651202283546622 -0.0003452896798108
  0.7602987044091080  0.7627324611305952  0.5019770307467933
  0.2401998303072148  0.0053200519507316  0.3336786306762175
  0.2397012994419439  0.0024337550084289  0.8313563086194947
  0.2363455186532550  0.5021968545420498  0.3357942148504133
  0.2361230566529555  0.4998002579693696  0.8363563906573988
  0.7290796534823462 -0.0058102165803041  0.3343239668665682
  0.7254356130936329 -0.0036736194916237  0.8332532655245445
  0.7280584012323151  0.4968107609152412  0.3332840054253326
  0.7348362923588962  0.5028559086142855  0.8333635016133409
  0.0708278512523778  0.3686200260339679  0.2838732673879817
  0.0696814192031222  0.3686148780132688  0.7841181972265789
  0.0721946381652214  0.8744969725604791  0.2834395634632726
  0.0794844650048361  0.8712641474433042  0.7708029165732790
  0.5678746681595314  0.3628846151374171  0.2735374367686025
  0.5779155395853125  0.3688440932481697  0.7706189456325061
  0.5675747870967541  0.8589449552994133  0.2777805087038220
  0.5646596884167552  0.8608066203967443  0.7757803942660643
  0.1443199230629180  0.2003797247615344  0.1088648076852031
  0.1461784327072897  0.2033807936759893  0.6089636721805468
  0.1442739236725815  0.7060478035150815  0.1089986685183976
  0.1302525208916523  0.7087523718807900  0.6030645299268584
  0.6374026283129417  0.2073251659611250  0.1080364595008664
  0.6375477109862471  0.2050610920121148  0.6072390773382181
  0.6335198626460494  0.7043265621181031  0.1100967472242923
  0.6282021323092634  0.7039379216531292  0.6076259941469718
  0.2960624267665048  0.4324562796660048  0.4443952712361356
  0.2944193244488822  0.4272926707222666  0.9434170240088681
  0.2971563809228154  0.9318805553719777  0.4410760129324923
  0.2944796328335859  0.9285158994970033  0.9400595257880411
  0.7845343344451985  0.4236484711720168  0.4402835535703504
  0.7883893124719678  0.4280200302944131  0.9413560424527454
  0.7868477835527550  0.9246775155752259  0.4436624822431460
  0.7801600305045943  0.9253627645685917  0.9432827166985930
  0.3664801156599000  0.0708066894584095  0.2232365754765576
  0.3717978495185623  0.0757357727654470  0.7257073289688163
  0.3625973508365856  0.5699225242513665  0.2252968656548625
  0.3624522768840157  0.5675133626741091  0.7260942503021220
  0.8556800557406136  0.0560597894656392  0.2244685015992086
  0.8538215515029459  0.0572023448251772  0.7243696428310407
  0.8557260696214698  0.5617738641011103  0.2243346481887429
  0.8697474726183351  0.5784998286289981  0.7302687877486367
  0.2198399731742507  0.1452027382481204  0.3900506112258937
  0.2131522321944209  0.1378297394192382  0.8896708469853485
  0.2116106928884246  0.6396307200935698  0.3919772865118444
  0.2154656750497807  0.6391141344093624  0.8930497794447693
  0.7055806814320952  0.1328733513225427  0.3899163066727087
  0.7039375840572988  0.1363938540866966  0.8889380676823465
  0.7055203763988016  0.6340362784356292  0.3932738014612890
  0.7028436383299526  0.6347241837488771  0.8922573179843630
  0.4324252080283570  0.2913701737212438  0.0555528329903179
  0.4353403073787507  0.2961469471756064  0.5575529463250570
  0.4321253319848993  0.7950099539430866  0.0597959020142360
  0.4220844590205437  0.7909285641448468  0.5627143881543389
  0.9291721643356597  0.2977922117910267  0.0494600876144544
  0.9303185869642936  0.2989334886945345  0.5492151584689294
  0.9278053800966152  0.8023023626011050  0.0498937878600950
  0.9205155408541551  0.7917797000180942  0.5625304287142492
