Ge Si O 
 1.0000000000000000
     9.8981697245877243    0.0037868874850714   -0.0024698759422601
    -4.9458059404024617    8.5651307027774148    0.0007683909353266
    -0.0027157751720043   -0.0005971042866734   10.9220339769616785
 Ge  Si  O  
   3  21  48
Direct
  0.0029845715675780  0.2325726068500093  0.1716447366492435
  0.2752764114804096  0.2694678208274652  0.0000612976583284
  0.2362501749897933  0.0062619411942360  0.3301603885452400
  0.0030311696265101  0.2371467395877052  0.6692798307531413
 -0.0063319626405681  0.7318265481687409  0.1669902671037761
 -0.0024412157040981  0.7332074152054818  0.6655205153854810
  0.5121631492057613  0.2348713326713259  0.1624131881017270
  0.4995064585394685  0.2338271882475499  0.6645957714001476
  0.4916743346195533  0.7324404528480278  0.1657712004616832
  0.4998948707188500  0.7344622912505790  0.6672330850853334
  0.2690319812591639  0.2753363677852486  0.5007758262309147
  0.2609047596990879  0.7688681200535068 -0.0005352459603058
  0.2670104776327916  0.7702660128630926  0.5022815879246606
  0.7738526051475694  0.2667549206891073 -0.0026524930163971
  0.7650621586563778  0.2613227040413095  0.5004200423636888
  0.7574291172143974  0.7596731840714096  0.0003957626487986
  0.7595208183784440  0.7573969076715890  0.4996929830026306
  0.2342084618011950  0.0004656502590873  0.8287698601746059
  0.2351016329572975  0.5059719726520367  0.3374718297906605
  0.2333285640678085  0.5056287772000279  0.8355427045774311
  0.7266115350592356 -0.0084993806502824  0.3340974032736722
  0.7389390169538034 -0.0003074857177505  0.8330640537888224
  0.7350763029482568  0.4942592902976488  0.3337601326339726
  0.7330253418579822  0.4976094378156904  0.8330391737791265
  0.0672896921367233  0.3691909614135814  0.2892746242042729
  0.0746445646498630  0.3685145620316118  0.7757608286831812
  0.0589859455315111  0.8598750591408156  0.2759100929679352
  0.0732135050483431  0.8654063447627670  0.7706672800964857
  0.5747308550747920  0.3582127776769415  0.2747572243041645
  0.5729244346899135  0.3636837920056564  0.7721021531832275
  0.5635313728881225  0.8596035680541347  0.2754508590933776
  0.5791069281157614  0.8681338489651015  0.7711021782868567
  0.1488528177446507  0.1953634965051945  0.1244431829180547
  0.1388912439306560  0.2151768818676032  0.6078173010367547
  0.1307779791155120  0.7113049779958295  0.1063899299981327
  0.1312626425337974  0.7062813206583077  0.6053394758389148
  0.6510060661212964  0.2101141493697354  0.1100067044024795
  0.6324949974669059  0.2057950058761245  0.6051778237382006
  0.6244968836937416  0.7046289556465929  0.1049949034762690
  0.6284598059813671  0.7002752108978635  0.6061919872904171
  0.2991153696389161  0.4403004511545544  0.4459189487013124
  0.2951094748163944  0.4432899278615548  0.9475474660157265
  0.3012388335564144  0.9372765094846821  0.4498307715834901
  0.2899278932036591  0.9306600444875918  0.9395532092505406
  0.7952349074290896  0.4228124412176527  0.4397196485068345
  0.7933590604456808  0.4248168838920579  0.9378616353678817
  0.7835986945462146  0.9168275975381832  0.4397908531741778
  0.7907834916389996  0.9225239599349166  0.9403373501008505
  0.3713105640504407  0.0700459597514170  0.2114320623111980
  0.3662800031623535  0.0715929285702164  0.7230507359777061
  0.3573403462875651  0.5700647737991441  0.2242696437973265
  0.3651728565948887  0.5767466627077781  0.7297008506351180
  0.8526790628439177  0.0566534378940344  0.2241150571681443
  0.8734834656050787  0.0743572078760524  0.7294738569833586
  0.8638674525597908  0.5681883665214913  0.2259033953876205
  0.8639946387136767  0.5735285049089434  0.7266442253978466
  0.2067439123712464  0.1521599480698508  0.3882203693588056
  0.2037759741541534  0.1360480290786606  0.8804546239799598
  0.2127871466011591  0.6453584212362871  0.3915080039717305
  0.2032916649693579  0.6397143747255714  0.8912101010945414
  0.7070907556598844  0.1295711970611986  0.3944752285181358
  0.7113262005209097  0.1334599018068355  0.8923094737272139
  0.7045505618772043  0.6255931599487775  0.3940440487172303
  0.7020619448029971  0.6285253946140342  0.8939554557791397
  0.4553760543468328  0.3019184969932371  0.0499292886877432
  0.4275871413460564  0.2938837947746069  0.5584014888074160
  0.4204594217388523  0.7935013352173489  0.0600554194479840
  0.4258927809247626  0.7932428942497610  0.5624545229014156
  0.9414372882335545  0.3003225780163223  0.0485572711957485
  0.9244583312770345  0.2895263161061200  0.5632561951023645
  0.9169636277779276  0.7861058001030700  0.0613465164059416
  0.9219206075446702  0.7889909716465455  0.5594918300669498
