Ge Si O 
 1.0000000000000000
     9.9034025334924589    0.0025172092981030   -0.0001033564216264
    -4.9495209761032219    8.5678942437507217   -0.0061525704696128
    -0.0001163268538481   -0.0078963963379519   10.9185558162696310
 Ge  Si  O  
   3  21  48
Direct
 -0.0034222162035739  0.2285744894996576  0.1685665771519965
  0.2729082065396667  0.2675429113231615  0.0001974883910386
  0.7337199753944691 -0.0000310341573151  0.8333891824915418
  0.0026808265339056  0.2330660789758421  0.6643144519191901
  0.0021026362730808  0.7371309141947517  0.1681290081273859
 -0.0021485998915895  0.7356192793157451  0.6651681502454817
  0.5121051856092698  0.2382433050062868  0.1669476186785852
  0.5046235910686359  0.2379512652473641  0.6675624967535563
  0.4908626280326320  0.7299517471004995  0.1658479031399819
  0.4915885740913356  0.7287518273279241  0.6665409757186506
  0.2719110734341739  0.2694186968092330  0.4990436586465763
  0.2620629925410473  0.7648993759352289 -0.0035091548626912
  0.2641965435928516  0.7667473393957206  0.4981843946730975
  0.7707359763845991  0.2727039224678954 -0.0017993058881028
  0.7666155333204976  0.2635248889518996  0.5004913596273630
  0.7610541250608140  0.7638150788312208  0.0050655860622050
  0.7584240666565552  0.7616434167133453  0.5024668121850046
  0.2424249847688801  0.0053177611648605  0.3307737671860486
  0.2385852586663189  0.0005371293308153  0.8289332633318571
  0.2330777495774328  0.4990320920817041  0.3346598583352403
  0.2289677643281912  0.4989593207576546  0.8323209250066685
  0.7217156855799177 -0.0086526426475514  0.3345903490494453
  0.7396904073852639  0.5008924084435193  0.3364711756035850
  0.7352659947349537  0.5045970472321706  0.8353558047447799
  0.0642157825258710  0.3646509297376241  0.2866907817603959
  0.0692877868578238  0.3588463912819693  0.7754942220893359
  0.0814895231334936  0.8727624365052342  0.2706296514944103
  0.0778561641082886  0.8667912848273027  0.7702415724181597
  0.5804290148238166  0.3679352343655303  0.2745351788385761
  0.5756229715267143  0.3685555390501457  0.7749341600707599
  0.5588935110844858  0.8573241299177635  0.2762134741930929
  0.5574990226390746  0.8535732439514409  0.7778267648910309
  0.1429599594853611  0.1923977755807352  0.1220410265685498
  0.1400264002955352  0.2124469293366983  0.6043596151424517
  0.1317956826545041  0.7081022618798791  0.1033310917072942
  0.1281898868141417  0.7073761515222352  0.6005145770141743
  0.6494685605250246  0.2125465937149191  0.1121971142800411
  0.6385552786069646  0.2105157396469640  0.6087966229903237
  0.6265380757081271  0.7036074473821222  0.1088369220112640
  0.6266467880421334  0.7027722811675425  0.6083163669058389
  0.2991716138630017  0.4303850455434640  0.4387483729066980
  0.2946731737021424  0.4407006858235568  0.9443173512817624
  0.2963524073647086  0.9289699839869451  0.4377327709813222
  0.2929707357905536  0.9283137428784125  0.9386437130975817
  0.7960606646947734  0.4255104392852473  0.4418550790128994
  0.7936302411231876  0.4347766217449550  0.9441849817441207
  0.7803703949997489  0.9193512939868412  0.4411575461749685
  0.7979080937193004  0.9320073840588454  0.9534969144735430
  0.3741262346776872  0.0783971433731901  0.2245999678711744
  0.3719970416108374  0.0742775378527565  0.7244614116209622
  0.3552430210853411  0.5666351556953083  0.2216193928502363
  0.3552772409732311  0.5663844792376194  0.7220801140632040
  0.8465495976749612  0.0546099148135036  0.2237285322938903
  0.8710023687116958  0.0653932325522524  0.7166090323732391
  0.8737503634020654  0.5779266063362284  0.2330253704510067
  0.8657362297339920  0.5765669254823812  0.7282259580641217
  0.2161021044685009  0.1388088851909299  0.3921604192463883
  0.2057707059683922  0.1341306328745573  0.8808640209922881
  0.2102548107437580  0.6363185228853603  0.3919322663225329
  0.2025575673401083  0.6356727734363498  0.8879020386626263
  0.7030830310351034  0.1305418109140564  0.3946290674278156
  0.7029244199237145  0.1468671967380600  0.8873189123249073
  0.7063062165021978  0.6300943899677803  0.3968724374376109
  0.7066360806248627  0.6386604908138278  0.8936706144744586
  0.4510934046522250  0.3001242787558400  0.0541168846215967
  0.4316244460274620  0.2958202307735756  0.5606800577051885
  0.4215806761304624  0.7896084608532095  0.0575666413864490
  0.4226083092585355  0.7920582843739652  0.5610304405034657
  0.9367641661926016  0.2983166374135516  0.0459256721518458
  0.9279092925016492  0.2902208603995363  0.5586375407997276
  0.9202147052427552  0.7882515777123876  0.0648561077056996
  0.9205272679486146  0.7938577850743395  0.5626788802801891
