Ge Si O 
 1.0000000000000000
     9.9188269485095528    0.0339575061912981    0.0156300489644113
    -4.9300054068105847    8.5390197506929582   -0.0000000192025820
     0.0172209151843783    0.0099424704161223   10.9129743994398911
 Ge  Si  O  
   3  21  48
Direct
  0.0013565687082039  0.2350423008352523  0.1653479909629335
 -0.0013565784026239  0.7336857270436318  0.1679853471833455
  0.4999999939753339  0.2313999558310926  0.6666666670004425
  0.0048362859543362  0.2371272786896569  0.6653910038057578
 -0.0048362991738655  0.7322909886579303  0.6679423320896081
  0.4999999938148836  0.2307355951160439  0.1666666652588460
  0.4999999954856471  0.7353144021452198  0.1666666726395071
  0.4999999922951828  0.7370181566415107  0.6666666690334930
  0.2715647788622115  0.2638460366772763 -0.0017677593502701
  0.2674726992348467  0.2708724492224071  0.4974113506735432
  0.2672599398477310  0.7625331986406779  0.0008018297432321
  0.2646565627302789  0.7703418027656805  0.5021367475543388
  0.7632034777627810  0.2673482815362700 -0.0018684539096532
  0.7703932156756927  0.2633294794943557  0.4994984017413421
  0.7645903500734236  0.7712714180977500 -0.0007970801789925
  0.7615584557184728  0.7609089838241364  0.4998225811049496
  0.2367965302548459  0.0041448061150155  0.3352017942055946
  0.2296067858248800 -0.0070637343467694  0.8338349345051306
  0.2354096506077880  0.5066810650170780  0.3341304204046104
  0.2384415420639831  0.4993505183511003  0.8335107556853197
  0.7327400694438870 -0.0047267355791495  0.3325315052987248
  0.7353434386214640  0.0056852390811333  0.8311965902974546
  0.7284352186549987  0.4922812516915052  0.3351010997673596
  0.7325272984596782  0.5033997468951136  0.8359219842796378
  0.0698783911097713  0.3740844940958684  0.2809055343257923
  0.0792714157854790  0.3685114478583004  0.7713519359413252
  0.0704157173401316  0.8692636228837571  0.2856811920439931
  0.0668376540362069  0.8610440429804281  0.7764072690823284
  0.5677519520436889  0.3580187147160151  0.2764404986578923
  0.5677753001990751  0.3694457886143362  0.7829100508564850
  0.5694141912031421  0.8635981061325798  0.2755973987308687
  0.5771206739257365  0.8709338990617869  0.7704951946206988
  0.1458536385262217  0.2030379917174196  0.1087288346866130
  0.1382334490552300  0.2085140020133550  0.6058948776823625
  0.1412969154238023  0.6988513778332847  0.1110661470695617
  0.1300973154139654  0.7082723079363396  0.6062493641552832
  0.6363122272793554  0.2053760857590843  0.1084694922504276
  0.6438798260068740  0.1982005938308822  0.6097787147082009
  0.6360753362940175  0.7102026689785370  0.1082140817349243
  0.6294882496435836  0.7051814005757687  0.6049209775361912
  0.2915741243119661  0.4330672821522175  0.4416588220976221
  0.2945672394452198  0.4244059049177764  0.9400454361897057
  0.2951042822621255  0.9347550804667439  0.4449724310187680
  0.2856951222812841  0.9212692850787081  0.9428806398431553
  0.7878223792784010  0.4224309904260081  0.4432275307977532
  0.7883121832941186  0.4308946171181073  0.9443456817122782
  0.7894970825684382  0.9221362411012631  0.4396401935057183
  0.7881217449710899  0.9322931008826012  0.9412404042511516
  0.3636877518567428  0.0690638533017905  0.2248638305136064
  0.3561201542341383  0.0543207558379090  0.7235546054414385
  0.3639246434196468  0.5741273267839775  0.2251192477649624
  0.3705117399751753  0.5756931311340461  0.7284123497302070
  0.8587030740702224  0.0575544512954537  0.2222671746967351
  0.8699026747612216  0.0781749832590487  0.7270839672524434
  0.8541463421446609  0.5571843303804352  0.2246044869290980
  0.8617665348072197  0.5702805382858405  0.7274384464039634
  0.2116878207610026  0.1425824397104347  0.3889876461568782
  0.2121776369259360  0.1346086192042565  0.8901058065246916
  0.2118782680793073  0.6441713635594636  0.3920929266100378
  0.2105029381036186  0.6326391655492104  0.8936931358202490
  0.7143048827512074  0.1355741713682211  0.3904526851415900
  0.7048957356389470  0.1396508065729375  0.8883609040640225
  0.7054327692861334  0.6298386748616981  0.3932878934827692
  0.7084258838019123  0.6414931608771853  0.8916745130788797
  0.4322480484341732  0.2902667768920086  0.0568928387409030
  0.4322247040185206  0.3016705059073774  0.5504232858754129
  0.4305858171570405  0.7941839229753207  0.0577359422111906
  0.4228793384031336  0.7938132440456666  0.5628381385788300
  0.9295842974513133  0.2988479293860225  0.0476521497775940
  0.9331623506928926  0.2942064083647619  0.5569260737606573
  0.9301216267707355  0.8042061307372984  0.0524277982569237
  0.9207285882605980  0.7892400501325093  0.5619813998885107
