Ge Si O 
 1.0000000000000000
     9.9213156451601616    0.0104597635004475    0.0050450650192384
    -4.9516071777112014    8.5474487669394481    0.0014260292152160
     0.0055559928787005    0.0050660217205424   10.9158917749865569
 Ge  Si  O  
   3  21  48
Direct
  0.0054361008871783  0.2334029962761889  0.1667874273848900
 -0.0035312687686619  0.7340060531491565  0.1648122346724689
  0.7662030513198078  0.2704187345375344 -0.0013515985688910
 -0.0000112942097259  0.2351681217425270  0.6669168383790787
 -0.0010148424540889  0.7373809867072971  0.6653653804667488
  0.4990152930505928  0.2308577200356390  0.1698498860642753
  0.5017787162900191  0.2358040246543256  0.6679600050040878
  0.4991612640413860  0.7336543293386032  0.1670612418882656
  0.4977317484260719  0.7308970105551922  0.6657974536677663
  0.2738742334117188  0.2634668273255959  0.0006420596272949
  0.2678522987787149  0.2690979949670197  0.5016656473621963
  0.2678404896548263  0.7623632295186721 -0.0007373057040014
  0.2643099366813015  0.7667300746355165  0.5004920425584417
  0.7649694144091006  0.2641250860998291  0.5002924535141203
  0.7610857158661498  0.7707479834554302 -0.0028098568215954
  0.7628868636469079  0.7631442540263389  0.4987650800505687
  0.2338680694255746  0.0017521233591783  0.3357152260663565
  0.2380145187862494 -0.0012810286531088  0.8328380304276454
  0.2385142768178114  0.5028605959557759  0.3360471756334311
  0.2369124255810087  0.4959394422979279  0.8346986975908667
  0.7305580117066782 -0.0038341176830110  0.3330172819420048
  0.7315075561390970  0.0018138005698781  0.8297573031157627
  0.7293650882743706  0.4942091101563612  0.3337272748892525
  0.7322978443431252  0.5084221409424019  0.8326242697638403
  0.0721174645244596  0.3670588524383941  0.2861772188446160
  0.0754363115396793  0.3644137811727751  0.7745785501934415
  0.0668597486844198  0.8686876929621370  0.2838796935817731
  0.0773424070115919  0.8691750187332135  0.7708090087453280
  0.5650130529924727  0.3592397171693841  0.2791842921333118
  0.5752444220672555  0.3677266480606140  0.7741384657686371
  0.5676540817655158  0.8618209585074542  0.2762484357084672
  0.5739802698111055  0.8633363299106713  0.7706739954766153
  0.1512790418703195  0.2012607455160905  0.1134885908640604
  0.1332719367672193  0.2093175776708443  0.6053087514518877
  0.1402443899005441  0.7012594247832159  0.1081722343258633
  0.1291330387925683  0.7065434541940091  0.6037008052579796
  0.6351069050834574  0.1997499414869987  0.1201889099471082
  0.6330360729233520  0.2073186990577039  0.6058159060712219
  0.6349866946170784  0.7089797310535124  0.1078762725342525
  0.6288935086023959  0.7025740019952926  0.6029608200193076
  0.2993346028962063  0.4329176121834807  0.4433045454145326
  0.2941481626144273  0.4226652579773998  0.9418817704577094
  0.2936628608927873  0.9296167800429425  0.4420685757795525
  0.2915990865020185  0.9220592068070340  0.9394580216496987
  0.7910382427871919  0.4246741268537599  0.4401118149140878
  0.7925186641463549  0.4472643058943786  0.9460918433766644
  0.7890231024870809  0.9239578613451199  0.4396057903002056
  0.7853045430460326  0.9336353830363732  0.9427204489811118
  0.3595464971146617  0.0694635639131347  0.2251331577116379
  0.3706971194861899  0.0733927197009385  0.7278473594045941
  0.3642741326085121  0.5711322160548012  0.2252375179715690
  0.3671936787469334  0.5692225052241017  0.7273870135790551
  0.8548931317134576  0.0587861739887502  0.2214884012684131
  0.8666730984633986  0.0729581778578447  0.7260983739381949
  0.8519670071585548  0.5564325923968980  0.2210529145454843
  0.8643806834896471  0.5782543865600550  0.7268365823778141
  0.2122343078118641  0.1397599724068982  0.3940780971375931
  0.2132532897021552  0.1335596053447139  0.8932367878118213
  0.2121551009411962  0.6388208844585399  0.3922272196310260
  0.2115362409409747  0.6313797670698349  0.8930296397487023
  0.7096454088308584  0.1335525755072607  0.3933274913185880
  0.6966636557154136  0.1357626241408672  0.8791863627063260
  0.7091802938770982  0.6331936736918534  0.3915197964094234
  0.7018284815071953  0.6434126891116705  0.8868330218168192
  0.4370373296944629  0.2914693478577557  0.0565361083238082
  0.4260231845484947  0.2935191036067183  0.5635665001618497
  0.4295899852969062  0.7924299637614616  0.0585211230501263
  0.4218270852085652  0.7901197838116459  0.5627917859487171
  0.9484551675202184  0.3064093412790853  0.0447467360174506
  0.9249795231535055  0.2934299202469722  0.5623003891221378
  0.9274394625532373  0.8026055523077258  0.0482617905241791
  0.9236720094847418  0.7945322568766856  0.5603768186981476
