Ge Si O 
 1.0000000000000000
     9.8951658511015150   -0.0015984756225928   -0.0026129375791447
    -4.9489672463384391    8.5718626395708526   -0.0000000181060083
    -0.0028797146789808   -0.0016626278118020   10.9180009994655229
 Ge  Si  O  
   3  21  48
Direct
  0.0000000007233680  0.2334580101935276  0.1666666623689805
  0.7635455334478873  0.7661966136618341  0.0005606611054340
  0.2364544747361297  0.0026510822583323  0.3327726693121238
 -0.0000000088528192  0.2381221592254861  0.6666666694759403
  0.0000000023366195  0.7292643101897761  0.1666666697844486
 -0.0000000092299099  0.7365090023090313  0.6666666673075184
  0.5055276187856610  0.2372770217832841  0.1624282939402502
  0.4971509971366353  0.2304521823780062  0.6635135839222007
  0.4944723862317033  0.7317494090595437  0.1709050356936837
  0.5028489827648601  0.7333011725417343  0.6698197536603198
  0.2702086045261283  0.2641757148643852 -0.0003541822123159
  0.2639742393339600  0.2701137605820557  0.5002447157212416
  0.2662191384701571  0.7636113527905222  0.0020660388232384
  0.2686040231564092  0.7688189693888434  0.5050099614294558
  0.7679944625121788  0.2714255771660110 -0.0051394586214181
  0.7642085350853881  0.2634439434284275  0.4978683601786846
  0.7643310468175269  0.7621595620369187  0.4997593746076696
  0.2356689517255762 -0.0021714921448049  0.8335739654130891
  0.2320055370172142  0.5034311086350920  0.3384727908832030
  0.2357914602088629  0.4992354016527709  0.8354649754759443
  0.7297913973387311 -0.0060328948552895  0.3336875172045053
  0.7360257548984657  0.0061395148053988  0.8330886150433994
  0.7337808605172469  0.4973922187081549  0.3312672953466053
  0.7313959801976264  0.5002149431693897  0.8283233737985850
  0.0660118704980144  0.3679152243072787  0.2861116322437930
  0.0752873085412606  0.3695687539039826  0.7725588530919408
  0.0609563292953228  0.8535806023987272  0.2782748209584627
  0.0727651215864441  0.8667381913006648  0.7739331059049622
  0.5713710479428924  0.3633884419627676  0.2729468258617971
  0.5730935693695197  0.3631884125315011  0.7683166999389940
  0.5642845830838258  0.8609008756879576  0.2791486714550097
  0.5781169488342571  0.8655665042487494  0.7754755148231565
  0.1462016588519819  0.2022553470925209  0.1116347699888054
  0.1330348898682683  0.2102900224173489  0.6067300387402382
  0.1387139557167378  0.7064031279578428  0.1115385922297346
  0.1349625348131090  0.7096459272104624  0.6094288771863607
  0.6434717900853013  0.2142791238443615  0.1060362786398805
  0.6298314237398115  0.2033302255408798  0.6017876971169779
  0.6281657915410870  0.6987019810276771  0.1187601542992130
  0.6340892999903512  0.7045064804223670  0.6070967014429881
  0.2944478315586291  0.4350652282070850  0.4459339347305238
  0.2893585315525565  0.4227142493044964  0.9422162880745809
  0.3047252320315911  0.9361954564473409  0.4518289346698489
  0.2913923023660263  0.9225930782490410  0.9400466385238636
  0.7919701801456474  0.4239176292108647  0.4372320870634626
  0.7902455372520247  0.4317659552068681  0.9376916715745313
  0.7887282013480982  0.9220061974480012  0.4402133806343814
  0.7979728100399288  0.9446129583488608  0.9455166454772482
  0.3718342040860481  0.0705361959964757  0.2145731716451985
  0.3659106849979927  0.0704171583469606  0.7262366265296520
  0.3565282037823821  0.5708073382503467  0.2272970460990785
  0.3701685585381067  0.5734987886514828  0.7315456349224444
  0.8537983330307629  0.0560536935818141  0.2216985568147360
  0.8669650947241989  0.0772551118544323  0.7266032862470674
  0.8612860368113835  0.5676891673170138  0.2217947311530603
  0.8650374573418965  0.5746833737824090  0.7239044521963729
  0.2020271948071143  0.1466401538242649  0.3878166773794443
  0.2112718163997259  0.1332779994647059  0.8931199582210719
  0.2097544660398867  0.6415204228193898  0.3956416561049198
  0.2080298393578946  0.6319474463091093  0.8961012531004156
  0.7106414669256103  0.1333557217513870  0.3911170365481907
  0.7055522012738517  0.1406174081571780  0.8873993990680588
  0.7086076965274265  0.6312007897601322  0.3932866881542922
  0.6952747902810769  0.6314702326037865  0.8815043934416790
  0.4357154059156123  0.2966163033047992  0.0541846832240379
  0.4218830555206394  0.2874495726307014  0.5578578191574480
  0.4286289531571965  0.7920174131046013  0.0603865155711939
  0.4269064435944156  0.7900948620953505  0.5650166344159052
  0.9339881197696792  0.3019033686051409  0.0472217146354197
  0.9247126998456144  0.2942814685540631  0.5607744861076429
  0.9390436704126042  0.7926242843800601  0.0550585286451414
  0.9272348869198384  0.7939730867475621  0.5594002262799929
