Ge Si O 
 1.0000000000000000
     9.9206762979781011    0.0325436420184284    0.0135570518061756
    -4.9321848722597652    8.5329226641933413   -0.0041091937233790
     0.0149402262667450    0.0034312672091332   10.9185551535677554
 Ge  Si  O  
   3  21  48
Direct
  0.0044853285887275  0.2358929475952648  0.1653568482967570
 -0.0013011172227157  0.7336274072098066  0.6678646047744221
  0.5032958976855867  0.2325233899205690  0.1666540183729520
  0.0011313587428676  0.2359215216962041  0.6653071801369407
 -0.0051633300587421  0.7312459440886082  0.1678911346344675
  0.4958293057636062  0.2297039682651054  0.6666417976938975
  0.4960680366794736  0.7339908099649610  0.1664963412105107
  0.5038923903125868  0.7382040648914113  0.6665550312448347
  0.2743220219972989  0.2721833326581956 -0.0030584833092544
  0.2646449187455025  0.2632247719639845  0.4981022835887459
  0.2611984524461631  0.7649186364520231  0.0009325706650329
  0.2711227423526342  0.7683432405102991  0.5017584602341362
  0.7698553699934738  0.2660824362511781 -0.0025765632044501
  0.7634769698629797  0.2651116494047144  0.5003634443674003
  0.7617087329352722  0.7633438869302586  0.0002730199834024
  0.7645912686762759  0.7688524511506080  0.4989729626320113
  0.2297538261376915 -0.0049657540401150  0.3334138916408410
  0.2367750754655558  0.0017907559420943  0.8356654541442641
  0.2390486105347688  0.5020368604113672  0.3354163205304071
  0.2353400242836921  0.5040063029492640  0.8317374797467016
  0.7289399438575094 -0.0004935417561484  0.3316014035479976
  0.7394145129317026  0.0013209584903566  0.8328582695789507
  0.7357295472036013  0.5010347297153500  0.3370871015299163
  0.7253684511249439  0.4943465900496566  0.8339959853199935
  0.0716877311459067  0.3712383192585048  0.2836783736440093
  0.0776248438623940  0.3703562589564875  0.7691371429177601
  0.0679687617518478  0.8603163190161908  0.2761975973687966
  0.0693754991949496  0.8689335048047279  0.7859342491393513
  0.5700220194386172  0.3666219620145085  0.2857854282773673
  0.5650762146700196  0.3596595128439221  0.7746754547889446
  0.5674206378738853  0.8649874793351329  0.2736008040749386
  0.5793198674532756  0.8690015798183369  0.7728313721484649
  0.1521624542289634  0.2070404407198594  0.1102779911327687
  0.1318018400765404  0.2065634788421875  0.6026704297808008
  0.1280883712435111  0.7052440032173176  0.1056443280702540
  0.1431144054742138  0.7015643370484077  0.6107750946236457
  0.6495883655676763  0.2009719097676232  0.1119280183496444
  0.6306560100937381  0.2050271588249014  0.6056836794539768
  0.6294708286012340  0.7077702521921059  0.1052982349996300
  0.6357868648145847  0.7072678121191163  0.6074587736433708
  0.2976354176043850  0.4277686471725095  0.4404392271341724
  0.2903856376528073  0.4306418865205741  0.9403416095751156
  0.2876260377050185  0.9265005210372032  0.4438823365692846
  0.2936417985053248  0.9299540452293724  0.9440626474692855
  0.7949253523260226  0.4304073833895344  0.4447605759563221
  0.7826411743959049  0.4235816575738551  0.9425422471745487
  0.7840292109347071  0.9278850715828056  0.4410668379539959
  0.7939302325671335  0.9267737073497319  0.9406453954252095
  0.3561425512582200  0.0566755668454261  0.2230257759563307
  0.3635893052648934  0.0663881490931478  0.7255931840131471
  0.3650875654642006  0.5704911351662049  0.2253392990098822
  0.3686644144405478  0.5788156360081075  0.7270302592495447
  0.8569685351675592  0.0608990236619212  0.2224667809666875
  0.8722746087883243  0.0747382032229972  0.7281611134418002
  0.8625656155810016  0.5686228359686462  0.2273208040434276
  0.8524196974551327  0.5577625746280923  0.7241833141163087
  0.2076417933495699  0.1345399675820813  0.3893302797542053
  0.2158699320632040  0.1424247802507344  0.8895935831601907
  0.2176630649914819  0.6401434651206169  0.3937508167875751
  0.2058378831891993  0.6372294071076967  0.8914069374659307
  0.7077400672983738  0.1389373731266408  0.3893624540714110
  0.7107067464345338  0.1357053856232086  0.8902620982294085
  0.7100574070037284  0.6380900688647966  0.3926640386398825
  0.7044417213235388  0.6334764559258538  0.8921491696302578
  0.4413215386808797  0.3056894274981863  0.0478176173883888
  0.4217770049528352  0.2861602019785582  0.5601862378236011
  0.4200714025991193  0.7896352766534733  0.0610644780045967
  0.4337916335520575  0.7992651199046799  0.5597444686755529
  0.9393211254814626  0.3037651765223267  0.0452061794922231
  0.9218846712389335  0.2888528237032927  0.5605810378900877
  0.9195924906143556  0.7881465002079218  0.0625990829303684
  0.9310613075824921  0.8052208359829203  0.5525325822239977
