Ge Si O 
 1.0000000000000000
     9.9209388977842714    0.0131615739442238    0.0084944912723779
    -4.9490806271596117    8.5484581159373114    0.0017540186729626
     0.0093525549546724    0.0076719630550398   10.9148064856155127
 Ge  Si  O  
   3  21  48
Direct
 -0.0007689511512410  0.2328756052758421  0.1696333059620371
 -0.0001411718368572  0.7363752695212771  0.1670355512968154
  0.2727210876381066  0.2671831849475593 -0.0002701870664134
  0.0017538651319732  0.2366460415377155  0.6676870213159886
 -0.0025501193149043  0.7317562586319082  0.6657741905447986
  0.5059529382974013  0.2314392741859982  0.1673642967453239
  0.4998733949967261  0.2344301552902766  0.6670907099941725
  0.4964829050644046  0.7320986430693293  0.1651208509140495
  0.4990866481837070  0.7365068229865671  0.6653466791137169
  0.2691323993005117  0.2716632940340619  0.5006804435431547
  0.2691571876663740  0.7687136718752111 -0.0020978893182576
  0.2661025109377554  0.7697034515024244  0.4992296528532704
  0.7667946635719171  0.2659092801984222 -0.0004130148575029
  0.7638532526646464  0.2616762855403899  0.5012739828738562
  0.7601529092747906  0.7644233707308472 -0.0014222910449331
  0.7609922442043383  0.7601191313968441  0.5000682677947835
  0.2387540960237239  0.0060912495155057  0.3341484026385115
  0.2349812539252591 -0.0017459566590988  0.8300155520699168
  0.2363442475280164  0.5038854305893423  0.3345387272861976
  0.2358113679771346  0.5049479210122692  0.8326427231881101
  0.7260165688447309 -0.0079880561027254  0.3344302391666587
  0.7342061051626995  0.0021043890217715  0.8324288438600047
  0.7317690537095468  0.4935178447730293  0.3351889619052847
  0.7328390954295032  0.4990983518000844  0.8345155695854184
  0.0674984894849120  0.3698232947116520  0.2868472030890457
  0.0767248951249617  0.3683824240249867  0.7737183747286376
  0.0709706939910978  0.8734582430703953  0.2838352079221917
  0.0754276651718433  0.8626103709420739  0.7715556472788632
  0.5705959199110776  0.3572803407919162  0.2781744706946025
  0.5731312583580810  0.3639614320539373  0.7747121579077955
  0.5638534207106609  0.8579775606228894  0.2762857493466239
  0.5755678962173121  0.8698548169959809  0.7697576537563389
  0.1436877345037019  0.1947149502136921  0.1222219811816865
  0.1344498787762322  0.2109443441881864  0.6044722513774438
  0.1434539532731004  0.7047690241442546  0.1083108752807210
  0.1296888761157112  0.7057026738274663  0.6018050457153988
  0.6433503729955385  0.2055146793655620  0.1125437956470020
  0.6320931708310082  0.2059079553210430  0.6068547136267753
  0.6323595120214642  0.7058858404190956  0.1079430844725835
  0.6284534335093314  0.7035822101654930  0.6050616519069920
  0.2981052459631817  0.4343595881652126  0.4415805332970416
  0.2970588492772525  0.4419989145221100  0.9444619916584110
  0.2961844360293714  0.9332244948541973  0.4416351500184210
  0.2918900501214891  0.9302795611894308  0.9415439746935548
  0.7921785671028408  0.4232683050578542  0.4417832048456256
  0.7886509885348445  0.4266048666869011  0.9428132739081782
  0.7864833459608045  0.9202195487325974  0.4398602832665839
  0.7847691641777973  0.9252036696982328  0.9404683325930244
  0.3646207090196663  0.0709712972970930  0.2229226634884250
  0.3673743887528544  0.0705714904864489  0.7243866434850790
  0.3597108579275117  0.5692066283864750  0.2218063826351843
  0.3662303113454698  0.5757608528371077  0.7257362842758045
  0.8501310776813376  0.0570203159580456  0.2232502528277381
  0.8699149930466731  0.0759076447318177  0.7294486406597412
  0.8572167645873250  0.5593362842917877  0.2246761240945828
  0.8649969124730894  0.5717048721831913  0.7283255116464309
  0.2170955177029769  0.1440776648482542  0.3921895690701698
  0.2028814689981932  0.1332303942837918  0.8805532288147526
  0.2144938877226019  0.6427878288585034  0.3903316375805223
  0.2097718881605856  0.6417850456626459  0.8879705897468773
  0.7055345645926864  0.1296423967761464  0.3951959681692453
  0.7060169476833668  0.1358953021360186  0.8916303484932797
  0.7064354865243273  0.6291062760242278  0.3936466427873516
  0.7033868626621801  0.6328626799716236  0.8921172439165673
  0.4494474188512549  0.2969844643366399  0.0538791828665357
  0.4271971969273965  0.2962754471042252  0.5632414141508900
  0.4301685667354594  0.7939826405339223  0.0558343205473258
  0.4248924617071608  0.7956016445056866  0.5609080533307420
  0.9348443870454561  0.2998496487838483  0.0485100098348240
  0.9238709258547906  0.2906438667205925  0.5624275009085218
  0.9272256187734745  0.8008781845008306  0.0507462716112738
  0.9205954138284059  0.7889571043379545  0.5620083164765900
