Ge Si O 
 1.0000000000000000
     9.8995267883082132    0.0033899926982683   -0.0023968287786195
    -4.9468287438440637    8.5695093004034355   -0.0041235158773532
    -0.0026404011053522   -0.0067711685203648   10.9224951105360706
 Ge  Si  O  
   3  21  48
Direct
 -0.0064184646870576  0.2231427075541086  0.1700202631548593
  0.2737268564835852  0.2710083429433436  0.0008070641848175
  0.2300378525717324  0.5004162446617384  0.3362535647030818
  0.0017113876565667  0.2329632208947972  0.6676297497427696
  0.0028327422354019  0.7421784730575230  0.1692884825787689
 -0.0011698252793485  0.7366542101653057  0.6671978667637897
  0.5117419750138454  0.2372210116289322  0.1651198299172186
  0.5036281278340518  0.2332630896526365  0.6665556160972742
  0.4915696855936980  0.7290962523945314  0.1628569393779085
  0.4955448012283329  0.7357227547107369  0.6651423659606192
  0.2694636378825395  0.2690716267756265  0.5032289363010601
  0.2618047860883378  0.7680927224897020 -0.0014146392451188
  0.2667654529340899  0.7767873027730400  0.4992105477944243
  0.7685704672484971  0.2627572611181317 -0.0030479602648354
  0.7661319391055470  0.2592808296530151  0.4984384331252174
  0.7625173336310549  0.7634301555949443  0.0009920501736337
  0.7577148113388810  0.7583480799310464  0.5021201144630790
  0.2411692658599203  0.0113403525906390  0.3318646654137199
  0.2369714844490651  0.0019967490149208  0.8304269787912580
  0.2306907381324066  0.5045415256511360  0.8333442682316159
  0.7205256772794987 -0.0139625328147344  0.3329573940013177
  0.7354063947071231 -0.0017833648678583  0.8320135970791258
  0.7414752356004790  0.4993857538532988  0.3355176025404189
  0.7370512135468765  0.4990376953865592  0.8340973376570676
  0.0463129982172566  0.3530202384854387  0.2922942255603176
  0.0730497248757657  0.3653622598768763  0.7736569626486137
  0.0801857161476949  0.8769720204462363  0.2726785717777654
  0.0751763600331251  0.8679270486505744  0.7728131672462608
  0.5835902410248630  0.3672537974917316  0.2719047651218096
  0.5774741382815289  0.3653109794943627  0.7724321998918874
  0.5564014020213289  0.8510110880929981  0.2769723794655007
  0.5746585852083600  0.8670382945065731  0.7708311812334097
  0.1457439542628915  0.1955319559442433  0.1240687382650928
  0.1362580363297656  0.2066165779083682  0.6082092643275928
  0.1334312208520024  0.7127932253684506  0.1064729834147767
  0.1335472658187428  0.7143788968083541  0.6039056625788471
  0.6449680800881973  0.2055663998609665  0.1093010411890348
  0.6362210230892790  0.2055890288732862  0.6055458498934209
  0.6289369532082673  0.7069031405822765  0.1048026334086174
  0.6243965327647468  0.7008033768376078  0.6062266621646936
  0.3038624550799403  0.4375911187985057  0.4538172096805129
  0.2957107753511380  0.4438266778851052  0.9441438651374304
  0.2967195084544393  0.9403316400937990  0.4422907692946298
  0.2915808426768480  0.9310714459432919  0.9409712051909043
  0.7976818590269047  0.4219143975815181  0.4393713193746362
  0.7931071452682229  0.4236191266253392  0.9397518486665390
  0.7812422863743178  0.9161417112564481  0.4396528655449475
  0.7905755918962795  0.9234904074557407  0.9389743801685736
  0.3720246857322195  0.0802128635412903  0.2248720932234860
  0.3708740121637455  0.0715249050276140  0.7260150990553220
  0.3571654779190502  0.5604458459547380  0.2122005966376295
  0.3597309699728546  0.5778707749886015  0.7258695801382311
  0.8424346729302008  0.0457382645642998  0.2197470384091283
  0.8692023249598285  0.0720662365339277  0.7278889408423966
  0.8750726658319932  0.5815480115235142  0.2325153539362753
  0.8690205298593693  0.5749883433956168  0.7284388660803731
  0.2142449905318820  0.1464143051539499  0.3902482747436821
  0.2063648401463680  0.1375954760733729  0.8811335623808196
  0.2071168931074416  0.6528059665669516  0.3875841304500326
  0.2004231505929207  0.6379966105254120  0.8906657861474268
  0.7040375113820255  0.1267375487491823  0.3923383070847936
  0.7059075594709892  0.1311900059131102  0.8905919565338212
  0.7056296538941693  0.6256645632802595  0.3979905932800697
  0.7088784848614864  0.6314937335164272  0.8952755359080130
  0.4519895806635419  0.3010657689153227  0.0527420032633480
  0.4285221611661246  0.2903662374278141  0.5614761058180129
  0.4223896785484692  0.7923799099526545  0.0571217990526167
  0.4251811678560535  0.7975013247704601  0.5591445773318909
  0.9353645558240932  0.2930641805594669  0.0467747813115460
  0.9260389563181338  0.2856287938547174  0.5594404651925819
  0.9226616652890194  0.7937885374960670  0.0641301373748010
  0.9194275381695536  0.7918564720326896  0.5640835960118685
