Ge Si O 
 1.0000000000000000
     9.8975426509483402   -0.0041636611882450    0.0038888404800552
    -4.9523771620101424    8.5777687819095565   -0.0000000127193810
     0.0042782316603228    0.0024700209947751   10.9161762930573740
 Ge  Si  O  
   3  21  48
Direct
 -0.0000000038519193  0.2364350089963756  0.1666666693090082
  0.2704609470057982  0.7678721161512898 -0.0011786209628447
  0.7295390563798486  0.4974111743892489  0.3345119583535179
 -0.0000000036946863  0.2273086193749453  0.6666666632472593
 -0.0000000032228856  0.7349265320320292  0.1666666736760972
 -0.0000000043616702  0.7377602116560865  0.6666666617743938
  0.4955139433171818  0.2283191193760425  0.1631070057650267
  0.5003475767624612  0.2372746733539811  0.6636180658085211
  0.5044860492943318  0.7328051734585634  0.1702263356567045
  0.4996524136272267  0.7369270954528102  0.6697152600597921
  0.2689490016093624  0.2671786216725250 -0.0029291240290203
  0.2650523696978739  0.2628176340533561  0.4965923359905302
  0.2675370765861502  0.7696937055378341  0.5014084547696691
  0.7620987687275257  0.2649964926654256 -0.0023428377704770
  0.7650987976477355  0.2621139721497285  0.5022640278421902
  0.7669009591136031  0.7646824342107376  0.0031770202712256
  0.7642151997755177  0.7699055241592729  0.5028399658607408
  0.2330990540318068 -0.0022185145713141  0.3301563195770485
  0.2357848010575742  0.0056903097688705  0.8304933605307530
  0.2379012292857799  0.5028977268588122  0.3356761782088983
  0.2349012039065695  0.4970151623493226  0.8310693020216264
  0.7310510075700882 -0.0017703684056853  0.3362624589450752
  0.7349476285259543 -0.0022347513298295  0.8367409940327835
  0.7324629243346944  0.5021566156627405  0.8319248734375623
  0.0697684494431793  0.3730251585063914  0.2834756484874888
  0.0769675250526071  0.3596555755820555  0.7714510817639729
  0.0682170711966306  0.8625162414510402  0.2760987782265066
  0.0753194578332009  0.8688971608987958  0.7730208519051535
  0.5548347656459259  0.3516793958810731  0.2756884952711298
  0.5732037504987353  0.3719617744533685  0.7674122876511356
  0.5698541827988252  0.8595196171268383  0.2804490573177409
  0.5725545794353837  0.8643878903542351  0.7785969390028121
  0.1440344151506774  0.2046581941997700  0.1083720282448081
  0.1328071499975740  0.2011719903927858  0.6029977713568723
  0.1360072653563836  0.7046686589242652  0.1168818165112363
  0.1328488460790032  0.7110431964684214  0.6050339915480375
  0.6354542801611833  0.2069492339960311  0.1080990727113968
  0.6325400626589205  0.2050158213657171  0.6076394358430066
  0.6412368268261319  0.7063271317619262  0.1144965979193762
  0.6345529238774309  0.7120383265710369  0.6101751971392604
  0.2940501325902896  0.4258422174910944  0.4401873999807063
  0.2933699673187888  0.4292863273115358  0.9416387126613961
  0.2940064333598209  0.9285826996881638  0.4379067099942355
  0.3004569799725132  0.9426237941161326  0.9396902836807519
  0.8003712453601025  0.4293346460776992  0.4500438939498224
  0.7836913644854074  0.4226977587506913  0.9372458381310960
  0.7924372438034916  0.9326098430678879  0.4460701428507470
  0.7910046538364396  0.9253199412877776  0.9450848891381817
  0.3587631573694570  0.0650902916994309  0.2188367240735148
  0.3654470686499172  0.0774853830660926  0.7231581194141211
  0.3645456925580252  0.5714949421601795  0.2252342493502874
  0.3674599278140180  0.5724757461380332  0.7256938803354342
  0.8559655595083550  0.0606237641350404  0.2249612839460094
  0.8671928430703910  0.0683648281210754  0.7303355505078236
  0.8639927116459332  0.5686613789687782  0.2164515045721278
  0.8671511484798764  0.5781943360651310  0.7282993269109648
  0.2089953526192642  0.1343152949756632  0.3882484457919256
  0.2075627831323065  0.1401726043099706  0.8872631833976907
  0.2163086494302332  0.6390064078003529  0.3960874939962454
  0.1996287692582685  0.6289634031330607  0.8832894327456394
  0.7066300481827228  0.1359163724983238  0.3916946213266959
  0.7059498862963737  0.1317920802235023  0.8931459391433483
  0.6995430356487519  0.6421668264989270  0.3936430457608134
  0.7059935969544074  0.6345762713521300  0.8954266244993377
  0.4301458293169412  0.2896654600225054  0.0528842946668713
  0.4274454013710454  0.2918333135450427  0.5547364064415526
  0.4451652489240324  0.7968446675503894  0.0576448568683911
  0.4267962338412473  0.7987580287651311  0.5659210532360986
  0.9302315526520429  0.3032567360262256  0.0498577079685836
  0.9230324608868236  0.2826880560698264  0.5618822611124048
  0.9317829465308475  0.7942992064234438  0.0572345796844821
  0.9246805299915101  0.7935777157011682  0.5603124905832357
