Ge Si O 
 1.0000000000000000
     9.9124932655209577    0.0100411871013138    0.0034473553573754
    -4.9475566581711936    8.5481434988224088    0.0043196891435725
     0.0038090636972967    0.0077320098609229   10.9273502175932276
 Ge  Si  O  
   3  21  48
Direct
  0.0074634686913759  0.2343218378733029  0.1668463461756349
  0.5046838933319064  0.2329222358853817  0.1657225714067380
  0.2698560357141417  0.2675590880628602  0.4983121657134082
  0.0006845125992776  0.2323048000124281  0.6684495878670045
 -0.0079000561617202  0.7296572981365241  0.1671991455761378
 -0.0016936690270452  0.7383883821630683  0.6684846192288871
  0.5076296607870324  0.2322237724631125  0.6659298657196939
  0.4936534395042977  0.7351657444714481  0.1666373330737570
  0.4953172780193995  0.7370707126415279  0.6661489191220057
  0.2751563086187315  0.2701493687038058 -0.0043278418072677
  0.2595364421318641  0.7647523929402097  0.0001397180694468
  0.2621063775983905  0.7710073948983260  0.5006682324143928
  0.7736529184444445  0.2671403880371004 -0.0019450544588644
  0.7702450192570994  0.2628486893791462  0.4997999705436262
  0.7573544268869203  0.7609829889933977  0.0010107821483543
  0.7611017093356528  0.7645317381351764  0.5022700986957532
  0.2290678363541080 -0.0035503017757328  0.3287528064714532
  0.2385503593890189  0.0029636028468179  0.8312183873770387
  0.2350646299249189  0.5071427975432443  0.3367650224347024
  0.2319691355990616  0.5007770622620317  0.8332399566745431
  0.7322696994424680 -0.0033484207610058  0.3317359018324638
  0.7333038939272325 -0.0012036107003738  0.8331318074010439
  0.7352758513087342  0.4976678308800908  0.3385928753813233
  0.7346764840914344  0.4992651781845028  0.8350948813221295
  0.0705613581021440  0.3676198444124796  0.2867212669834659
  0.0721120195768242  0.3661034868179452  0.7730772812465367
  0.0664435414909936  0.8587588589660722  0.2748786487884544
  0.0763315606996773  0.8710919962255314  0.7729517389930981
  0.5682189316447727  0.3647321848398271  0.2864664035085058
  0.5783011607148372  0.3634733106508241  0.7722110978730709
  0.5686428862399778  0.8644130472913516  0.2744122051277456
  0.5719272600157852  0.8671274229881030  0.7731072341872526
  0.1550030922243157  0.2064994533283568  0.1102504082919433
  0.1336191819160725  0.1985831254076958  0.6159917574017312
  0.1256571801042411  0.7051210034391207  0.1042083250536552
  0.1289740052342714  0.7094848191115586  0.6054347568299754
  0.6542866439123967  0.2056741408427689  0.1131673196313711
  0.6412824897020185  0.2029353635277211  0.6084097726776613
  0.6246554758790623  0.7052897313826694  0.1055855269102497
  0.6262723300322568  0.7068679645059304  0.6053178061767185
  0.3021486843658967  0.4469286048742207  0.4463787757617581
  0.2912642110723619  0.4286211408106664  0.9395006323271109
  0.2870312061236273  0.9324064292186420  0.4422493189057529
  0.2906458676783502  0.9272501855801826  0.9398434186967574
  0.7968990295911651  0.4257130609085026  0.4433579583399341
  0.7920959173459888  0.4265725851444125  0.9420684281012335
  0.7878096063774751  0.9241023004778773  0.4401491169960767
  0.7879160117544188  0.9227325533729592  0.9396942955355917
  0.3561891545747415  0.0551618482431231  0.2189472342279805
  0.3704803425646265  0.0722758812948871  0.7250271281562612
  0.3589303085900293  0.5735814454810833  0.2252077339875781
  0.3620437927172782  0.5758525091189693  0.7261883478840949
  0.8594899475027193  0.0580122475596066  0.2221471917151211
  0.8652706411217739  0.0718990539513078  0.7277375164793599
  0.8600644179216599  0.5673122199100430  0.2273239328460539
  0.8679129819619044  0.5776952993482573  0.7307571639288760
  0.2024299125477139  0.1363336286125958  0.3768656474922128
  0.2148021505111721  0.1400690800131902  0.8884128904702316
  0.2084092495106456  0.6435390498209262  0.3918009861748412
  0.2044580405886056  0.6342451173373336  0.8933025387622101
  0.7119395097292890  0.1356588074727280  0.3900619294847872
  0.7089535067420176  0.1347850669973465  0.8922644155599662
  0.7101601418201410  0.6328665682341280  0.3975008678753513
  0.7018748923163166  0.6294779425626131  0.8949169010843614
  0.4434230562743910  0.3043705677108453  0.0451381839578103
  0.4437129553769692  0.2937120226420594  0.5552136610579155
  0.4199119432739675  0.7938564072450786  0.0615061157691039
  0.4218045432907588  0.7977789868323493  0.5620132220469868
  0.9422364159215696  0.3013675623301862  0.0460260969824473
  0.9310048202330270  0.2880600014107271  0.5578048757521380
  0.9163831446037232  0.7876607372689381  0.0631130625874850
  0.9209888227356984  0.7955843631963740  0.5654107629843363
