Ge Si O 
 1.0000000000000000
     9.9198963997417788    0.0150230928638023    0.0016683317733676
    -4.9469363572952965    8.5462763781335642    0.0026295324775429
     0.0018400748970492    0.0044438417437491   10.9272156837973764
 Ge  Si  O  
   3  21  48
Direct
 -0.0008205450816840  0.2275517193054347  0.1699293638079301
  0.0024621643725967  0.2302069848281576  0.6680267804438395
  0.2754833024792369  0.2701886275992437 -0.0004930519318377
 -0.0004672628826124  0.7420113736591872  0.1675077461403552
 -0.0024522512013890  0.7368980254833374  0.6658290354728762
  0.5128682889822948  0.2361106693443412  0.1641996209170151
  0.5069204248950974  0.2367236046064041  0.6645459533879146
  0.4892154450548806  0.7299196968633918  0.1674245111316563
  0.4921418924837389  0.7322686458635616  0.6679471976588166
  0.2755263884026639  0.2691483245394707  0.4991690349451517
  0.2625605223936946  0.7713648177012237 -0.0012585275842015
  0.2636692659193030  0.7680362149210173  0.4989261993559234
  0.7709556482594109  0.2643376647681057 -0.0031454992465810
  0.7670866893219289  0.2641755061721396  0.4972280497266448
  0.7560047425803109  0.7607668511245197  0.0033572810149491
  0.7559879424776839  0.7606028338184344  0.5030108001371265
  0.2429442796605699  0.0067234374959135  0.3290806753529901
  0.2391490619518246  0.0042337261892396  0.8272006190865198
  0.2324601419533863  0.4985504929079917  0.3373428759543458
  0.2323446257688759  0.5049221138660954  0.8371139528090339
  0.7231069745643008 -0.0086544156052338  0.3344063079305768
  0.7287008654816073 -0.0065187380474266  0.8335296759786500
  0.7375927003869713  0.5018003737851174  0.3346871166984545
  0.7359080526110162  0.4998311168050471  0.8348469283431722
  0.0652542396719084  0.3636117844386738  0.2877822061492384
  0.0685320651296304  0.3651116438054350  0.7867616406037830
  0.0800335583325654  0.8765657399070136  0.2704465923314711
  0.0779576828919420  0.8695213783937973  0.7699648619456673
  0.5813715552883089  0.3673825282802303  0.2706041829744831
  0.5771950549002373  0.3664206825966490  0.7722509380946065
  0.5604643508562434  0.8565665325164999  0.2776888437524168
  0.5655984457948147  0.8604900510323417  0.7765694767865337
  0.1455356228608809  0.1924730016891005  0.1212983481909282
  0.1482602611076520  0.2021627752466816  0.6086167323728569
  0.1290059691453218  0.7134663088221135  0.1024670251187255
  0.1280923251236524  0.7095783262178057  0.6011079105180899
  0.6475342654453772  0.2064075586718908  0.1093653719063449
  0.6410879071018746  0.2085268665359778  0.6073757403512999
  0.6221666487107781  0.7021141029136501  0.1072772593959125
  0.6235121577127303  0.7019133947957978  0.6080539591795282
  0.2963877511295006  0.4303289728744776  0.4436854784378541
  0.2995930981569202  0.4468125912456553  0.9482845748155533
  0.2954197106558171  0.9295538752871226  0.4365134316387986
  0.2941229569382983  0.9346188987236212  0.9388931280392018
  0.7934960057436201  0.4261071182653806  0.4400297049418401
  0.7933889686044513  0.4249221331583344  0.9398644759336752
  0.7806363889869744  0.9206707334861796  0.4429489265011941
  0.7828945742184092  0.9214202945085949  0.9430173269748394
  0.3742678387716588  0.0767925716726534  0.2226057126438453
  0.3717882249980394  0.0742531881514127  0.7218892429338407
  0.3551553635232014  0.5663743497379720  0.2246363316698287
  0.3562771072067857  0.5706452673425442  0.7254288694192650
  0.8488318840466793  0.0522857862027677  0.2240788627135936
  0.8565707117498591  0.0536244292126675  0.7245437445455472
  0.8719755008658794  0.5819108419850584  0.2319339187426877
  0.8677021434230420  0.5770849425418767  0.7294915672638045
  0.2201770174003912  0.1431333365588781  0.3891065682736370
  0.2080116646257095  0.1401179112049853  0.8775918088297453
  0.2097796678932354  0.6364100794024521  0.3937545067526290
  0.2066497805068277  0.6427477361771382  0.8905086766959147
  0.7038714935315986  0.1319022848806651  0.3909524812878825
  0.7089280473410071  0.1339447075141416  0.8893078057126118
  0.7030894003232384  0.6299333561497620  0.3964181223804799
  0.7048366013777349  0.6301258883527958  0.8969256637067536
  0.4526154480380629  0.2982983242493311  0.0510408573811569
  0.4377720898174297  0.2968694496573437  0.5562670065223262
  0.4191039099160728  0.7932547612390826  0.0625345301340502
  0.4217993953245834  0.7949862204421879  0.5630230615008529
  0.9372062807898853  0.2959936657284454  0.0481495014805793
  0.9320972949614658  0.2954116631020240  0.5501463807635422
  0.9172142323691380  0.7940208858580262  0.0650251886487862
  0.9173879758528902  0.7919313912261250  0.5633588055065509
