Ge Si O 
 1.0000000000000000
    10.0041415236392872    0.0015657770627345   -0.0016789478081271
    -5.0007179771643111    8.6129169895888147    0.0067489683958064
    -0.0018262941631678    0.0074993382698766   11.2762857283648970
 Ge  Si  O  
  22   2  48
Direct
  0.0011858418909407  0.2237177787304155  0.1677157603825030
 -0.0030746322929603  0.2278995531816082  0.6688037915292272
 -0.0030746322929620  0.7278995531816055  0.1688037915292279
  0.0011858418909424  0.7237177787304154  0.6677157603825022
  0.5059175856843362  0.2292048968911029  0.1666621260991452
  0.4959908999071982  0.2215792659011637  0.6654493989719475
  0.4959908999071989  0.7215792659011631  0.1654493989719489
  0.5059175856843375  0.7292048968911009  0.6666621260991440
  0.2771986003576412  0.2781253647886097  0.0016855234835534
  0.2719727423094368  0.2778538041105197  0.5027612740622172
  0.2719727423094382  0.7778538041105173  0.0027612740622172
  0.2771986003576403  0.7781253647886079  0.5016855234835521
  0.7765068565150592  0.2685392729261199 -0.0027237038075262
  0.7714600038041961  0.2729709324354543  0.4962831934888723
  0.7714600038041971  0.7729709324354525 -0.0037168065111275
  0.7765068565150584  0.7685392729261179  0.4972762961924732
  0.2271584128805172  0.0050322665269773  0.3347500068507620
  0.2219541635753912  0.0009393475695681  0.8344080667789342
  0.2219541635753923  0.5009393475695687  0.3344080667789323
  0.2271584128805176  0.5050322665269767  0.8347500068507615
  0.7247349509664850 -0.0049685761631969  0.3319593026672309
  0.7247349509664848  0.4950314238368022  0.8319593026672285
  0.7283434507609129 -0.0007581347066184  0.8320949545497439
  0.7283434507609137  0.4992418652933818  0.3320949545497441
  0.0432395429813319  0.3464624085632925  0.2904694163861842
  0.0474610666468768  0.3554871947064020  0.7886383679804082
  0.0474610666468799  0.8554871947064012  0.2886383679804069
  0.0432395429813312  0.8464624085632906  0.7904694163861848
  0.5641692091185729  0.3573474459398804  0.2864896047397174
  0.5454120026930347  0.3409808246154645  0.7904453884024941
  0.5454120026930375  0.8409808246154650  0.2904453884024943
  0.5641692091185726  0.8573474459398795  0.7864896047397156
  0.1540204921968702  0.1979070823301182  0.1240066847169094
  0.1463299018086505  0.1975376559581714  0.6234965528253423
  0.1463299018086480  0.6975376559581681  0.1234965528253410
  0.1540204921968708  0.6979070823301152  0.6240066847169086
  0.6509559390769659  0.1937852698243621  0.1184536495185997
  0.6475653669710767  0.1966133207815502  0.6181502462779197
  0.6475653669710760  0.6966133207815488  0.1181502462779194
  0.6509559390769674  0.6937852698243593  0.6184536495186002
  0.2984071395117330  0.4574823096808189  0.4587705892291923
  0.3020085697759061  0.4573726777287859  0.9579167305696807
  0.3020085697759037  0.9573726777287818  0.4579167305696782
  0.2984071395117339  0.9574823096808183  0.9587705892291928
  0.7958012874815971  0.4481966372501771  0.4440250619705429
  0.8035708117794736  0.4480749448308632  0.9525973472635957
  0.8035708117794707  0.9480749448308616  0.4525973472635978
  0.7958012874815955  0.9481966372501749  0.9440250619705428
  0.3534395500344270  0.0517241371429719  0.2146019258569799
  0.3430841355204302  0.0426267759351150  0.7110591150385877
  0.3430841355204324  0.5426267759351124  0.2110591150385870
  0.3534395500344291  0.5517241371429696  0.7146019258569793
  0.8469699304170302  0.0428926737002101  0.2086369604331565
  0.8461539223970035  0.0519646453647706  0.7197634626405749
  0.8461539223970019  0.5519646453647660  0.2197634626405740
  0.8469699304170302  0.5428926737002077  0.7086369604331532
  0.2001355810124318  0.1576655120211988  0.3782386207075710
  0.1991367674803609  0.1561786746852290  0.8781135456215240
  0.1991367674803631  0.6561786746852298  0.3781135456215216
  0.2001355810124318  0.6576655120212004  0.8782386207075675
  0.6960955441975474  0.1459839324426013  0.3760376427049935
  0.7041525995461833  0.1401506295222018  0.8777727482208855
  0.7041525995461819  0.6401506295222014  0.3777727482208844
  0.6960955441975469  0.6459839324426011  0.8760376427049920
  0.4569408332676725  0.3075254143702771  0.0464550695372321
  0.4503466686846500  0.3041855584133790  0.5466849284905473
  0.4503466686846528  0.8041855584133771  0.0466849284905467
  0.4569408332676700  0.8075254143702720  0.5464550695372311
  0.9559216179906411  0.2998952774390842  0.0442578465773327
  0.9493326430491803  0.3018232245593688  0.5450687992322784
  0.9493326430491826  0.8018232245593653  0.0450687992322767
  0.9559216179906413  0.7998952774390834  0.5442578465773310
