Ge Si O 
 1.0000000000000000
    10.0036956385154880   -0.0000001424024780    0.0000000123215737
    -5.0018479399981643    8.6139834554336918    0.0080950817553587
     0.0000000262079637    0.0102881780601540   11.2844477162721208
 Ge  Si  O  
  22   2  48
Direct
 -0.0027957234078771  0.2249933951744399  0.1652111514052283
 -0.0027957234078750  0.2249933951744424  0.6652111514052288
  0.0006363571320032  0.7267449039711614  0.1711868351754906
  0.0006363571320050  0.7267449039711651  0.6711868351754898
  0.5057241041190313  0.2315168851860418  0.1686673917048197
  0.5057241041190351  0.2315168851860448  0.6686673917048167
  0.4962448037364154  0.7194551739308110  0.1635982473241616
  0.4962448037364157  0.7194551739308078  0.6635982473241639
  0.2767896358599987  0.2805448211000104  0.0030684166994091
  0.2767896358599964  0.2805448211000057  0.5030684166994094
  0.2722108761099573  0.7750066016445022  0.0014555130130591
  0.2722108761099605  0.7750066016445050  0.5014555130130582
  0.7738914552167130  0.2732550933750032 -0.0045201553745713
  0.7738914552167175  0.2732550933750071  0.4954798446254293
  0.7742072283476010  0.7684831158490378 -0.0020007234037332
  0.7742072283475978  0.7684831158490362  0.4979992765962642
  0.2286057826528774  0.0056706192650426  0.3358379810797769
  0.2286057826528803  0.0056706192650449  0.8358379810797780
  0.2207222147015746  0.5000000004013149  0.3333333413451325
  0.2207222147015721  0.5000000004013136  0.8333333413451306
  0.7229351656776419 -0.0056706042027270  0.3308286905203275
  0.7229351656776447 -0.0056706042027290  0.8308286905203248
  0.7299401671835429  0.5000000030749477  0.3333333369315281
  0.7299401671835423  0.5000000030749493  0.8333333369315301
  0.0414604525392828  0.3467732992301392  0.2887266621879473
  0.0414604525392864  0.3467732992301397  0.7887266621879443
  0.0493481269354178  0.8552221988925574  0.2901176974531136
  0.0493481269354126  0.8552221988925597  0.7901176974531179
  0.5648445836424161  0.3586363384815976  0.2888571334214699
  0.5648445836424131  0.3586363384815980  0.7888571334214707
  0.5446905192257340  0.8395105179840624  0.2881411486066831
  0.5446905192257363  0.8395105179840635  0.7881411486066816
  0.1497427319897230  0.1981880883324984  0.1226384997792904
  0.1497427319897230  0.1981880883325031  0.6226384997792899
  0.1500229957820163  0.6968848473579984  0.1246372413555462
  0.1500229957820212  0.6968848473579966  0.6246372413555503
  0.6532084298574706  0.2009907350689665  0.1192979276774394
  0.6532084298574735  0.2009907350689663  0.6192979276774379
  0.6456434879968445  0.6900878010323513  0.1171772338448876
  0.6456434879968460  0.6900878010323517  0.6171772338448882
  0.3000284812818421  0.4582737720365652  0.4568346185464017
  0.3000284812818403  0.4582737720365667  0.9568346185463990
  0.3001428349608090  0.9559669117683526  0.4596898587018939
  0.3001428349608096  0.9559669117683511  0.9596898587018956
  0.7970737581709377  0.4489035994954582  0.4454081535317955
  0.7970737581709413  0.4489035994954614  0.9454081535317977
  0.8027315698536474  0.9475499231116041  0.4507021825630869
  0.8027315698536460  0.9475499231116010  0.9507021825630848
  0.3551816487557085  0.0524500799605836  0.2159644887421003
  0.3551816487557092  0.0524500799605844  0.7159644887420975
  0.3417547074586581  0.5417262109659253  0.2098320598585766
  0.3417547074586596  0.5417262109659259  0.7098320598585800
  0.8441759210440291  0.0440330786368638  0.2069768032115600
  0.8441759210440349  0.0440330786368698  0.7069768032115615
  0.8481701592321352  0.5510963802186747  0.2212585144581740
  0.8481701592321346  0.5510963802186726  0.7212585144581733
  0.2051800121650752  0.1604894891046447  0.3785255149105063
  0.2051800121650729  0.1604894891046462  0.8785255149105062
  0.1946871411680131  0.6532267003422064  0.3779399961167442
  0.1946871411680181  0.6532267003422041  0.8779399961167477
  0.6941259274148005  0.1447778162975991  0.3765489694778869
  0.6941259274147997  0.1447778162975953  0.8765489694778843
  0.7062082347169149  0.6413636688154483  0.3778095196139533
  0.7062082347169129  0.6413636688154495  0.8778095196139557
  0.4555556824344902  0.3099121926310318  0.0494894372483571
  0.4555556824344912  0.3099121926310336  0.5494894372483540
  0.4515546537831503  0.8018119122771320  0.0440281474820395
  0.4515546537831523  0.8018119122771299  0.5440281474820405
  0.9531381559894723  0.3031151574441448  0.0420294268975267
  0.9531381559894705  0.3031151574441417  0.5420294268975295
  0.9522177162713679  0.7990092717431253  0.0473687378918133
  0.9522177162713695  0.7990092717431286  0.5473687378918086
