Ge Si O 
 1.0000000000000000
     9.9841787632409780    0.0119641537195950    0.0067828722145104
    -4.9817281185864699    8.6286059686106338   -0.0000000180178192
     0.0074454497426639    0.0042985853602853   11.2740993733053365
 Ge  Si  O  
  22   2  48
Direct
 -0.0000918309432523  0.2238926633588872  0.1685227813812565
  0.0098374054204191  0.2310551482528267  0.6694909268737136
  0.0000918294805938  0.7239844910074518  0.1648105506756221
 -0.0098374074305007  0.7212177381199987  0.6638423989577641
  0.4999999984741595  0.2297714963214992  0.1666666615385625
  0.5000000011036755  0.2230659857441337  0.6666666628242204
  0.5000000037292169  0.7237528562697934  0.1666666659031680
  0.4999999964617244  0.7286759221157617  0.6666666679475550
  0.2741020676040132  0.2751299294912455 -0.0032827003379705
  0.2799868646082652  0.2779610457402840  0.4986302442131905
  0.2749583112609882  0.7694941495834804 -0.0027101933826016
  0.2706469015446040  0.7759099132539848  0.4984776278975884
  0.7758717837332130  0.2783269857001957  0.0026994901040139
  0.7781729086995259  0.2737217216366186  0.5029276774995042
  0.7747339444683542  0.7752541467221989  0.0000716992021173
  0.2241282233447221  0.0024552061293356  0.3306338445144192
  0.2218270891684298 -0.0044511918346759  0.8304056560149132
  0.2252660652053614  0.5005202033135955  0.3332616388752118
  0.7250416922004727 -0.0054641581527442  0.3360435277901789
  0.7293531047252512  0.0052630163035865  0.8348557037957731
  0.7258979253508705  0.5010278582494273  0.3366160390763069
  0.7200131417944740  0.4979741839653845  0.8347030951332706
  0.7677789827766915  0.7698332881158414  0.5011329728083153
  0.2322210140756374  0.5020543004557747  0.8322003643184204
  0.0461254012460297  0.3469748359786531  0.2911160529155873
  0.0672471341004781  0.3614063395228919  0.7873527404066618
  0.0467038356604097  0.8488544069993257  0.2862950750067827
  0.0417052541403050  0.8456471628399527  0.7859455291156534
  0.5459006448064312  0.3520702515777210  0.2899632993055324
  0.5416307257224270  0.3445159366842326  0.7902776747995128
  0.5452513810748966  0.8463844148930761  0.2891966547857376
  0.5519289684309282  0.8554034796489297  0.7869230671511624
  0.1529823016853949  0.2004006182486181  0.1205570747456930
  0.1586734448192862  0.2004924844166727  0.6220740936557799
  0.1488435860635228  0.6923328744446536  0.1182857832441343
  0.1417542678796388  0.6954123503249693  0.6169961362474120
  0.6518247467085690  0.2010026944048032  0.1244677496322536
  0.6539602272979841  0.1971863409299397  0.6250611211903917
  0.6532634375662408  0.6974717609403341  0.1237277595716591
  0.6488800777603184  0.7025351924810486  0.6130788531852508
  0.3045049090959470  0.4574978167419864  0.4564079164107161
  0.2982909602050353  0.4502350927480022  0.9446177682897509
  0.2983235468989653  0.9556650318572587  0.4543953499893330
  0.2994756278394898  0.9468991956622257  0.9508543148289506
  0.8046513262574067  0.4518737206424026  0.4560126649705883
  0.8002531228097175  0.4567086579850281  0.9578350240239754
  0.7931893615001858  0.9357517459830630  0.4563415532350970
  0.8011712914019056  0.9553319044951504  0.9585454589141532
  0.3481752365705267  0.0491779405292061  0.2088655649478020
  0.3460397551923601  0.0432261152202568  0.7082721969572630
  0.3467365660876362  0.5442083176646982  0.2096055683773768
  0.3511199219824037  0.5536551067888971  0.7202544872555610
  0.8511564075406691  0.0434892853479281  0.2150475438343661
  0.8582457258404318  0.0536580747958478  0.7163371838543219
  0.8470176901175588  0.5474183121692452  0.2127762609400382
  0.8413265484289930  0.5418190268630984  0.7112592305959610
  0.1997468886062664  0.1564555389905345  0.3754983192640087
  0.1953486585778654  0.1472223804014649  0.8773206777501077
  0.1988287145617603  0.6541606182936871  0.3747878690321906
  0.2068106450113594  0.6425623846222159  0.8769917800002528
  0.7005243925268044  0.1474235822404640  0.3824790119094552
  0.7016764818936481  0.1573415050621879  0.8789379762490718
  0.7017090276414806  0.6519441304161114  0.3887155657058063
  0.6954951000567885  0.6529929165272192  0.8769254216445344
  0.4540993485456827  0.3061696146233580  0.0433700356679093
  0.4583692747447372  0.3028852309624161  0.5430556700371043
  0.4547486201222308  0.8011330420336256  0.0441366859835343
  0.4480710288573089  0.8034745019484592  0.5464102664776944
  0.9532961662943780  0.3021505897445133  0.0470382720350591
  0.9582947392502834  0.3039419221747890  0.5473878093371933
  0.9538746016254792  0.8008494460023279  0.0422172892446316
  0.9327528620934037  0.7941592062596818  0.5459805936517516
