Ge Si O 
 1.0000000000000000
     9.9817406251991052    0.0137073009340717    0.0004490048243595
    -4.9789985814539897    8.6254508396669145    0.0040312012275229
     0.0005110777129992    0.0053928151304727   11.2796542425356812
 Ge  Si  O  
  22   2  48
Direct
 -0.0022014852287461  0.2244915377824402  0.1669805929628778
  0.0031338114694585  0.2234914501292936  0.6679890509316466
  0.0023811978918280  0.7260094534823833  0.1674574964688163
 -0.0068768703407258  0.7267897052784881  0.6680535916072656
  0.5016521616208371  0.2289366538868923  0.1683231734508135
  0.5071437345145984  0.2304797851843313  0.6685332888247445
  0.4979539318439198  0.7215254107921141  0.1640028191996243
  0.4978159094421729  0.7238573542211811  0.6618832104835118
  0.2761417298218374  0.2798819246131223  0.0015272312889129
  0.2798118463085233  0.2798965564855845  0.5016222945485025
  0.2755237266929297  0.7768668966889380 -0.0010606838136926
  0.2682497770081252  0.7750307239791300  0.4998526649882544
  0.7728430580067650  0.2734464863773605 -0.0022929418977728
  0.7780567332227182  0.2713220066932357  0.5001566429474861
  0.7738877059928067  0.7676771567931752 -0.0013006633478685
  0.2248501517547026  0.0043078222103633  0.3330150227448904
  0.2268134192117230  0.0052292409377182  0.8330380078171722
  0.2230682610975133  0.5004323063546170  0.3331233063719176
  0.2253417763183117  0.5023481370793189  0.8319559491184043
  0.7240241265894233 -0.0071608804801621  0.3339430442069288
  0.7245720323334102 -0.0042654176801674  0.8324766041168036
  0.7286720333021167  0.5010393998900763  0.3365906679836897
  0.7701813563860440  0.7704731139260581  0.4995931952468839
  0.7275157083637800  0.4989937433309269  0.8341840409516699
  0.0435424344023232  0.3482069254479864  0.2891206759790617
  0.0462983699332134  0.3489360522027730  0.7887341229080289
  0.0468311248444950  0.8517611500736305  0.2879030935099572
  0.0470541780223554  0.8579652095336523  0.7856062393832774
  0.5488144246288068  0.3509945281093632  0.2916931670418035
  0.5631038709219509  0.3578704736227106  0.7885821988427270
  0.5450705685413414  0.8434708749384096  0.2871863687199846
  0.5472929542704323  0.8427271763852177  0.7869349586609410
  0.1508175294755983  0.1988809548751063  0.1222143157962620
  0.1571428762213921  0.1989549705399596  0.6241145145096144
  0.1537991756193740  0.6981319527697420  0.1221079568212562
  0.1413638755257279  0.6958331816568637  0.6198930865996269
  0.6532343602014048  0.2020951515504560  0.1223356603321258
  0.6561081356214309  0.1987629787352662  0.6234533486922689
  0.6487725733929972  0.6915783661608300  0.1202869785216049
  0.6490800146286768  0.7014852841507881  0.6096646810993376
  0.3027955827094237  0.4579178371926177  0.4562819286976793
  0.3022746410343428  0.4589740575125952  0.9562195989076394
  0.2951999323681034  0.9552437761629210  0.4579383738409468
  0.2996706070169834  0.9559530777714917  0.9566624949088000
  0.8067256451245380  0.4515102391448223  0.4563774831511300
  0.7955698299920997  0.4481099827813309  0.9459288855417136
  0.7952200511395966  0.9359721603283359  0.4536450595977113
  0.8006419717866279  0.9465099562979203  0.9535879972800132
  0.3505251954689587  0.0489513990610427  0.2126163915444830
  0.3549843594384826  0.0521723193485704  0.7141585240236725
  0.3446904982799238  0.5435303033493332  0.2098255638171360
  0.3470906479461998  0.5448195612340924  0.7086939298804736
  0.8488127247971955  0.0436177016731277  0.2121700902702124
  0.8499497066154195  0.0447118201807070  0.7113667675602124
  0.8494233949462167  0.5477370112204720  0.2126454075212388
  0.8457314565138034  0.5517316947801598  0.7222906336785365
  0.2021369215746086  0.1592336624947019  0.3776452634043153
  0.2027827146774850  0.1595709505731273  0.8772843949060873
  0.1954118639120343  0.6531725475502453  0.3762815261031310
  0.1990368240582105  0.6559112985904104  0.8750360651752710
  0.6974336930207466  0.1447558906917240  0.3802779713417193
  0.6938914150399839  0.1449820300478125  0.8787467111581582
  0.7060073965443835  0.6532447627799894  0.3868877534504018
  0.7023691676669546  0.6397876593360955  0.8789561832939810
  0.4547259429024285  0.3068543291476082  0.0468783202292441
  0.4594368669052393  0.3084298995764031  0.5469932638296299
  0.4545579622430818  0.8024672343985082  0.0423902545344402
  0.4478467273722058  0.8048040588454498  0.5446225331380684
  0.9515499326676391  0.3009534276029964  0.0438052350598065
  0.9568871807036590  0.2967888751510252  0.5431339485740440
  0.9540324785734727  0.7987523996095540  0.0436395577346737
  0.9337043670818029  0.7940722768517796  0.5475329132247251
