Ge Si O 
 1.0000000000000000
    10.0050947118466098   -0.0000001235393898   -0.0000000261311087
    -5.0025474578596798    8.6196641830871226    0.0052449332076583
    -0.0000000033734307    0.0065974204348693   11.2726087681175642
 Ge  Si  O  
  22   2  48
Direct
 -0.0029611270729093  0.2267361995223923  0.1659243674274931
  0.0059669541829134  0.2300851897065217  0.6683034587270524
  0.0015042894884202  0.7229515490052200  0.1662464681164695
 -0.0047519884563445  0.7229498843711251  0.6683806024803861
  0.4970388729270917  0.2267361995223937  0.1659243674274938
  0.5059669541829144  0.2300851897065211  0.6683034587270528
  0.5015042894884196  0.7229515490052191  0.1662464681164692
  0.4952480115436558  0.7229498843711250  0.6683806024803866
  0.2722981428420256  0.2770501040951468 -0.0017139351225422
  0.2785527630137719  0.2770484572209537  0.5004202112130048
  0.2758817769790489  0.7699148167772794 -0.0016367897353056
  0.2703026895081843  0.7732638085668416  0.5007422941284609
  0.7722981428420259  0.2770501040951469 -0.0017139351225419
  0.7785527630137707  0.2770484572209532  0.5004202112130024
  0.7758817769790496  0.7699148167772802 -0.0016367897353060
  0.7703026895081833  0.7732638085668407  0.5007422941284611
  0.2242297977263037 -0.0000000084285653  0.3333333274508004
  0.2273977927223100 -0.0000000128472669  0.8333333260545973
  0.2250107934955432  0.4999999824163773  0.3333333343875576
  0.7242297977263030 -0.0000000084285651  0.3333333274508006
  0.7273977927223098 -0.0000000128472649  0.8333333260545971
  0.7250107934955430  0.4999999824163785  0.3333333343875575
  0.2256930509258522  0.4999999871673694  0.8333333373643408
  0.7256930509258523  0.4999999871673714  0.8333333373643403
  0.0451819826894321  0.3474999012067103  0.2901892242210034
  0.0609027683389831  0.3576943928361269  0.7885399285881138
  0.0461495204357600  0.8457727544062048  0.2890527212881562
  0.0480333709012411  0.8490728245600421  0.7891286688156740
  0.5451819826894323  0.3474999012067113  0.2901892242210042
  0.5609027683389850  0.3576943928361289  0.7885399285881121
  0.5461495204357607  0.8457727544062039  0.2890527212881558
  0.5480333709012417  0.8490728245600431  0.7891286688156733
  0.1483788465879478  0.2002436547554625  0.1200376673649766
  0.1550354443225471  0.1995847188151760  0.6225069861072561
  0.1509916252905117  0.6930637122209018  0.1201616361376898
  0.1443521645498063  0.6933701864967722  0.6214286243222993
  0.6483788465879468  0.2002436547554608  0.1200376673649762
  0.6550354443225478  0.1995847188151768  0.6225069861072549
  0.6509916252905095  0.6930637122208988  0.1201616361376875
  0.6443521645498055  0.6933701864967710  0.6214286243222988
  0.3031614844261656  0.4561310926217687  0.4565086045035114
  0.2936464869326388  0.4509568615705622  0.9461940794769050
  0.2997586239531905  0.9539296912511769  0.4566838659082283
  0.3031753326386420  0.9493401116088536  0.9537958206367236
  0.8031614844261663  0.4561310926217688  0.4565086045035099
  0.7936464869326391  0.4509568615705614  0.9461940794769025
  0.7997586239531883  0.9539296912511752  0.4566838659082281
  0.8031753326386397  0.9493401116088533  0.9537958206367234
  0.3458288280807979  0.0460703274847632  0.2099827189416444
  0.3538351364265279  0.0506598970673769  0.7128707759093049
  0.3470303184020717  0.5438689142027869  0.2101580180334806
  0.3426895390682557  0.5490431311200928  0.7204725409731126
  0.8458288280807955  0.0460703274847627  0.2099827189416438
  0.8538351364265261  0.0506598970673769  0.7128707759093030
  0.8470303184020720  0.5438689142027879  0.2101580180334806
  0.8426895390682554  0.5490431311200943  0.7204725409731120
  0.2003767365366441  0.1542271868530347  0.3776139998297134
  0.1989605136198369  0.1509271173877428  0.8775380309894280
  0.1976820331387850  0.6525000234104197  0.3764774877414509
  0.2032083546042706  0.6423055617579992  0.8781267740858317
  0.7003767365366392  0.1542271868530333  0.3776139998297116
  0.6989605136198354  0.1509271173877439  0.8775380309894276
  0.6976820331387835  0.6525000234104198  0.3764774877414507
  0.7032083546042710  0.6423055617580029  0.8781267740858294
  0.4509820233338550  0.3066298853032335  0.0452380530898724
  0.4579279605634797  0.3069363594896313  0.5465050478984411
  0.4554507502921391  0.8004153402032435  0.0441597087974553
  0.4481352195105611  0.7997563957952132  0.5466290138477086
  0.9509820233338565  0.3066298853032352  0.0452380530898724
  0.9579279605634786  0.3069363594896318  0.5465050478984401
  0.9554507502921409  0.8004153402032455  0.0441597087974553
  0.9481352195105607  0.7997563957952147  0.5466290138477093
