Ge Si O 
 1.0000000000000000
    10.0063455931452854    0.0010022389667692    0.0000656749208632
    -5.0023058363813151    8.6116866961414633    0.0086121578117608
     0.0000892821541495    0.0109647992584576   11.2805206323779004
 Ge  Si  O  
  22   2  48
Direct
 -0.0003392688066937  0.2267105427072248  0.1668152955825370
 -0.0016396717154443  0.2249792233094256  0.6699289668742843
 -0.0003392688066920  0.7267105427072271  0.1668152955825369
 -0.0016396717154443  0.7249792233094251  0.6699289668742843
  0.4991842328243100  0.2233436673365899  0.1652217026198503
  0.5026976873027030  0.2276716529530723  0.6664875894832171
  0.4991842328243116  0.7233436673365903  0.1652217026198503
  0.5026976873027034  0.7276716529530723  0.6664875894832162
  0.2759438348071006  0.2800094723522720  0.0016764087222066
  0.2731885201167381  0.2759596531062168  0.5027617186385264
  0.2759438348071024  0.7800094723522735  0.0016764087222064
  0.2731885201167378  0.7759596531062164  0.5027617186385264
  0.7727235080817934  0.2673074988190177 -0.0046794356069943
  0.7754795817567404  0.2740007612954408  0.4984847239020170
  0.7727235080817946  0.7673074988190192 -0.0046794356069944
  0.7754795817567416  0.7740007612954409  0.4984847239020180
  0.2238758853418942  0.0011486590237363  0.3345263562044504
  0.2252182466289503  0.0048411207785816  0.8346413751246792
  0.2238758853418939  0.5011486590237363  0.3345263562044496
  0.2252182466289502  0.5048411207785817  0.8346413751246787
  0.7254699368345245 -0.0010665784002432  0.3321195817182376
  0.7254699368345253  0.4989334215997575  0.3321195817182366
  0.7275587950453363 -0.0050389531016609  0.8319780398167128
  0.7275587950453356  0.4949610468983386  0.8319780398167133
  0.0443571299934333  0.3487045347181997  0.2899669317636106
  0.0464015832677305  0.3527701707961615  0.7895921163386924
  0.0443571299934331  0.8487045347182010  0.2899669317636105
  0.0464015832677311  0.8527701707961580  0.7895921163386951
  0.5471189937704695  0.3446742743365825  0.2890754409878057
  0.5623633489814726  0.3542894872482920  0.7869666058979402
  0.5471189937704684  0.8446742743365830  0.2890754409878052
  0.5623633489814738  0.8542894872482925  0.7869666058979387
  0.1515412155920468  0.1996661723389855  0.1230652332740444
  0.1488563684107808  0.1961953128746835  0.6245511116040666
  0.1515412155920493  0.6996661723389885  0.1230652332740454
  0.1488563684107801  0.6961953128746835  0.6245511116040658
  0.6478066496547267  0.1936232893668281  0.1170310736932009
  0.6500967959318382  0.1959197969445808  0.6192651513372572
  0.6478066496547289  0.6936232893668292  0.1170310736932016
  0.6500967959318386  0.6959197969445805  0.6192651513372573
  0.2993786323260536  0.4554172569188168  0.4581384599453751
  0.3012667835982866  0.4595143211854573  0.9583299313409492
  0.2993786323260545  0.9554172569188170  0.4581384599453754
  0.3012667835982915  0.9595143211854605  0.9583299313409485
  0.8033159140792263  0.4545848144638835  0.4550781620539100
  0.7950132676031191  0.4407893389278573  0.9416502287879385
  0.8033159140792245  0.9545848144638819  0.4550781620539107
  0.7950132676031220  0.9407893389278611  0.9416502287879402
  0.3462232124787192  0.0447277715729340  0.2117987282949225
  0.3501408906899962  0.0498537605378239  0.7137246001713228
  0.3462232124787199  0.5447277715729347  0.2117987282949225
  0.3501408906899968  0.5498537605378255  0.7137246001713231
  0.8468221997728597  0.0454215070312491  0.2084944449060669
  0.8460722285315208  0.0492276582883389  0.7199201487706265
  0.8468221997728610  0.5454215070312514  0.2084944449060661
  0.8460722285315204  0.5492276582883390  0.7199201487706273
  0.1983139657819380  0.1543605048638259  0.3790702615486817
  0.2007657794913487  0.1593062316696985  0.8774992116607099
  0.1983139657819391  0.6543605048638264  0.3790702615486814
  0.2007657794913479  0.6593062316696980  0.8774992116607104
  0.6995553925973638  0.1523418959679869  0.3751081644438616
  0.7025337418286945  0.1344216749722125  0.8790482997026259
  0.6995553925973658  0.6523418959679878  0.3751081644438626
  0.7025337418286947  0.6344216749722124  0.8790482997026274
  0.4539330750021059  0.3049504612361170  0.0453481684518695
  0.4532892981657433  0.3066344959013638  0.5472542995949232
  0.4539330750021083  0.8049504612361182  0.0453481684518692
  0.4532892981657423  0.8066344959013625  0.5472542995949229
  0.9530176825990767  0.3032743415024633  0.0443381239943829
  0.9524545616333236  0.2994642061553512  0.5457227783551098
  0.9530176825990779  0.8032743415024653  0.0443381239943834
  0.9524545616333253  0.7994642061553516  0.5457227783551096
