Ge Si O 
 1.0000000000000000
     9.9834765900126907    0.0110894062351031    0.0002815904123989
    -4.9821345860600523    8.6293099586547743   -0.0000000262001301
     0.0003109002902192    0.0001794424229436   11.2747097547165893
 Ge  Si  O  
  22   2  48
Direct
  0.0000000006317044  0.2213523832251850  0.1666666689424168
 -0.0000000007364214  0.2203652206880500  0.6666666621604480
 -0.0000000010060308  0.7265123928455604  0.1666666651649784
  0.0000000001602647  0.7314433212282218  0.6666666650547676
  0.5042983292334671  0.2286456031711188  0.1691041791472687
  0.4996416142403776  0.2259517404092541  0.6699244930012737
  0.4957016694274713  0.7243472724023480  0.1642291483034040
  0.5003583881177341  0.7263101209611977  0.6634088370473609
  0.2764899396123164  0.2701774493981217 -0.0014921376937053
  0.2774004466745968  0.2780070367615068  0.4996434433012732
  0.2719131938151804  0.7738663075734575 -0.0046766435869816
  0.2729384472419164  0.7763132821918334  0.4974180395628225
  0.7766462161103571  0.2763587149196142  0.0012625944455326
  0.7729193076701713  0.2699772419895177  0.5024781454792598
  0.7737928144269300  0.7775632756072086  0.0015258808452151
  0.2262071927408291  0.0037704614312782  0.3318074539576446
  0.2233537912492329  0.4997125006771092  0.3320707415798423
  0.2270806887389489  0.4970579283697020  0.8308551911384693
  0.7235100573785895 -0.0063124936625030  0.3348254759688414
  0.7225995605925425  0.0006065928250248  0.8336898891741323
  0.7280868036293713  0.5019531122574576  0.3380099772768134
  0.7270615615164355  0.5033748394626923  0.8359152949440557
  0.7725712706942954  0.7733159436846500  0.5016749622211445
  0.2274287307647186  0.0007446746620620  0.8316583716223058
  0.0452918043666968  0.3451426997153352  0.2888829400975093
  0.0477379924433694  0.3438557184775258  0.7888322337758201
  0.0477224129356264  0.8509077356034003  0.2884198042573604
  0.0619098375525040  0.8626352399350254  0.7845518422601853
  0.5485302118536107  0.3520254039694003  0.2915470715594817
  0.5483969689363283  0.3530317199909716  0.7899604614250954
  0.5433270331215350  0.8460232066608135  0.2876929701864399
  0.5452582314242489  0.8473814484446677  0.7873738672041609
  0.1507011980612237  0.1930775896384147  0.1196258696487073
  0.1534768083971308  0.1964940412862378  0.6212098199254525
  0.1509294988318185  0.6995089412193398  0.1190222186351450
  0.1466507184445279  0.6989705714049415  0.6174861980152198
  0.6560573263227043  0.2006505776447853  0.1252671453227458
  0.6497338784523957  0.1954347270480055  0.6253378642448465
  0.6489185965771558  0.6973936692133907  0.1225918617704250
  0.6529268752233081  0.7046029227471965  0.6127829710733641
  0.3030838921702525  0.4571578993588096  0.4551041799697797
  0.3046313256264919  0.4491680619190931  0.9518328965682216
  0.2993927121517154  0.9565952197271170  0.4562060427220623
  0.2928498007720153  0.9475387401827258  0.9437250373152304
  0.8037426257139291  0.4504875773548577  0.4580463280579036
  0.8028024939139584  0.4562408785847822  0.9588068087735503
  0.7947789911244897  0.9373233091855363  0.4548639129438559
  0.7984143473707904  0.9562774213251822  0.9580801599459445
  0.3510813995785104  0.0484750661376368  0.2107414640356333
  0.3470731216986216  0.0516760571306404  0.7205503602712711
  0.3439426652077755  0.5445932467266599  0.2080661807323170
  0.3502661119492921  0.5457008394847275  0.7079954650169177
  0.8492987945489759  0.0423763878846543  0.2137074634808602
  0.8465231836076939  0.0430172256835798  0.7121235004843465
  0.8490704921231540  0.5485794390134408  0.2143111107463025
  0.8533492844385645  0.5523198472741216  0.7158471334048662
  0.2015856570335324  0.1578630720297527  0.3752531757402682
  0.2052210057798754  0.1425443129821047  0.8784694279422854
  0.1971975098260627  0.6534383842782709  0.3745265256925819
  0.1962573630807733  0.6467449410600637  0.8752870083543434
  0.6953686735308279  0.1445367343453914  0.3815004408927605
  0.6969161195481429  0.1540740147778988  0.8782291510010837
  0.7071502046568223  0.6546889450376555  0.3896082902109699
  0.7006073043728789  0.6572025149879684  0.8771272912472378
  0.4566729621638122  0.3026961783316761  0.0456403658729756
  0.4547417688231449  0.3021232231946930  0.5459594687306062
  0.4514697826728575  0.8034951902739840  0.0417862613584015
  0.4516030379839185  0.8046347508100659  0.5433728699250348
  0.9547081983431662  0.2998509053925227  0.0444504056219021
  0.9522620029345407  0.2961177389767955  0.5445011047210514
  0.9522775905747513  0.8031853351953501  0.0449135354041771
  0.9380901608092103  0.8007254052721867  0.5487814943535971
