Ge Si O 
 1.0000000000000000
     9.9801620818161290    0.0136942275766976    0.0059114249046152
    -4.9782211660814237    8.6286558276068384   -0.0013998847457840
     0.0065050393271646    0.0019737001492536   11.2776749487101888
 Ge  Si  O  
  22   2  48
Direct
 -0.0000611733057453  0.2221275646018262  0.1681756034187546
  0.0012167207901036  0.2263719624141414  0.6669798619746178
 -0.0004800241564774  0.7273933013322170  0.1696883669710431
 -0.0046629485658134  0.7252284457488026  0.6664532066901129
  0.5087624387133469  0.2351201838767228  0.1696116166318279
  0.4999584920330200  0.2245440129506981  0.6672393933371593
  0.4947683429437597  0.7199158650228799  0.1637918420156961
  0.5006504928973796  0.7251376590839004  0.6616103457125234
  0.2780960621575891  0.2783391272780634  0.0016495356423943
  0.2783273314174367  0.2818643258232462  0.5015561750874706
  0.2711820886852776  0.7742648195645795  0.0000055052502332
  0.2723933402425264  0.7777633869532437  0.4987976782697922
  0.7773779104381029  0.2744032311834678  0.0000162396223496
  0.7740352315355925  0.2703271216540282  0.4981542696954439
  0.7731830725108856  0.7734412650752831 -0.0005347693030107
  0.2285507362935960  0.0085164648744264  0.3331306684350867
  0.2234238026281913  0.0011297965208587  0.8330377284538236
  0.2213096577398976  0.5006280498030178  0.3331544086795588
  0.2271547982426351  0.5021327986901197  0.8321788970442854
  0.7232264755405341 -0.0111490830399217  0.3333928526372362
  0.7251456755265415 -0.0006029438907945  0.8322569859438967
  0.7245565808434096  0.4979410912907443  0.8345568490073336
  0.7708611149989956  0.7645600933856526  0.4983437985239912
  0.7311295120020425  0.5012457807253261  0.3366638661932301
  0.0426430523197456  0.3462212758577940  0.2900694696548975
  0.0472927640898768  0.3505275650451777  0.7886472717912473
  0.0504501862156942  0.8584718611775950  0.2868645760683281
  0.0435321510425913  0.8513674335944136  0.7873238858441156
  0.5655538215940713  0.3635007354541741  0.2892571259370333
  0.5455320273386677  0.3453788943145486  0.7912621734188452
  0.5430995188275827  0.8408185514270865  0.2875735716022935
  0.5487021618414345  0.8460188816914693  0.7857079782234999
  0.1541915769990222  0.1981244065969738  0.1235319993515163
  0.1542386701826351  0.2004076017663658  0.6229881635461734
  0.1481321660197677  0.6957027702330902  0.1226053186823212
  0.1469042577686968  0.6987951722963437  0.6196010180807376
  0.6565990210563218  0.2018916342596784  0.1239185970154536
  0.6529121356634655  0.1992043253573662  0.6221531967276659
  0.6482578222232682  0.6943820117040949  0.1207486424326034
  0.6491298708903431  0.6980551011030105  0.6084587543509370
  0.3019302523796423  0.4601152197673117  0.4567845286435308
  0.3038436661855333  0.4570432596471136  0.9555408760653452
  0.2984451632001532  0.9577685259888071  0.4574513369890607
  0.2969476065579154  0.9535679465462826  0.9569723011612935
  0.7982670130997037  0.4443488650685664  0.4448597186904842
  0.8034342517860994  0.4542637261089263  0.9572629819411341
  0.7944845683733193  0.9281978922310462  0.4501815883404769
  0.8009772549025657  0.9532207942409212  0.9554156316779067
  0.3577998623668557  0.0562369822054205  0.2150866437387510
  0.3477693799626806  0.0450552352009577  0.7114766563211001
  0.3417621614797792  0.5417535493162736  0.2091533403814677
  0.3497947560842117  0.5465555226999201  0.7092282259116683
  0.8495073191147479  0.0414965302764246  0.2122446996571858
  0.8491055404686435  0.0470440511199171  0.7103287000113153
  0.8485669884830527  0.5550537052553007  0.2240739773232038
  0.8468768749709401  0.5442105878826308  0.7116125922884082
  0.2036382857220624  0.1624079798091121  0.3768744645861819
  0.2012524051420189  0.1562372144585359  0.8784159828479333
  0.1960787430821034  0.6551438003254965  0.3755907741821887
  0.1978760993652429  0.6536069975240545  0.8759158168745785
  0.6949092251360678  0.1386123318895335  0.3815052451480500
  0.6973404209449634  0.1511592178291888  0.8778887203567773
  0.7107719495759750  0.6411952422489250  0.3895719406205655
  0.6983370437560260  0.6519420419153426  0.8758401468020487
  0.4584738106822474  0.3098065592922117  0.0478000111489426
  0.4559825318548146  0.3055278089221506  0.5459765387994960
  0.4506590637357098  0.8012079423363404  0.0431608503054807
  0.4514560310092582  0.8055034291148623  0.5433241245927958
  0.9552827441140596  0.2986203711556891  0.0443146094490771
  0.9540664728488083  0.3007990155693280  0.5433314764467572
  0.9507116401516493  0.7984144209839602  0.0450830501587662
  0.9363739372358687  0.7943706902665467  0.5471097798758556
