Ge Si O 
 1.0000000000000000
     9.9830018330666661    0.0130385920321509    0.0053727217142301
    -4.9802091625597171    8.6259750405572309   -0.0000000266710372
     0.0058948401147326    0.0034033298862315   11.2771873891207441
 Ge  Si  O  
  22   2  48
Direct
 -0.0034337808611854  0.2193765142198539  0.1667496223436025
  0.0034337834024034  0.2228102963248491  0.6665837079668477
  0.0066003144643939  0.7324427888025924  0.1679645099758366
 -0.0066003144146955  0.7258424740306104  0.6653688199723963
  0.5008589082222048  0.2296652502886945  0.1710198004091375
  0.5026802545790046  0.2245692203838478  0.6679348738940910
  0.4973197503896641  0.7218889637012462  0.1653984546405584
  0.4991410884581453  0.7288063371365064  0.6623135251868377
  0.2752577299366361  0.2759577104951605 -0.0002964516348762
  0.2785280817496460  0.2719219038610294  0.4983987049140153
  0.2763249659854473  0.7756776813301863 -0.0023042291757171
  0.2692998567239750  0.7746696142194969  0.4954519148606393
  0.7722700643286385  0.2737779458701848  0.0023357728753038
  0.7773443838543017  0.2726724402770625  0.5013821915484858
  0.7753760509595026  0.7759870263612062  0.0016543630094359
  0.2246239553626127  0.0006109773819108  0.8316789701400926
  0.2226556185097244  0.4953280558933032  0.3319511492494912
  0.2277299347877318  0.5015078773928848  0.8309975640504171
  0.7214719230196995 -0.0066061766693355  0.3349346335661054
  0.7247422689748186  0.0006999809792682  0.8336297853316467
  0.7307001413743056  0.5053697576052085  0.3378814184988969
  0.7236750393308523  0.4993527184312298  0.8356375645262052
  0.7711770474605164  0.7744165146513162  0.5012210535469740
  0.2288229531693403  0.0032394707983738  0.3321122820490182
  0.0436477296043214  0.3413634244773588  0.2900200300854939
  0.0492899901244682  0.3481781164444886  0.7875650729482616
  0.0645591912753843  0.8632774572195308  0.2856931534555144
  0.0445012588875888  0.8505675915174784  0.7873036043876925
  0.5511427180956845  0.3580814809525663  0.2903358044509037
  0.5451037008421066  0.3466150527085274  0.7909362242441418
  0.5418690479039560  0.8438254990884363  0.2886642274336156
  0.5468746235656228  0.8494169414179280  0.7864643677790097
  0.1499425203342784  0.1955505204014203  0.1205677524455865
  0.1542049155381793  0.1942108995413871  0.6204512755923139
  0.1538980708815920  0.6994005067500879  0.1204514991475936
  0.1441888061233103  0.6997326830430600  0.6165840020387419
  0.6500856226184240  0.1982567924518490  0.1256051838893765
  0.6557253059073554  0.1979187150301272  0.6251312071226592
  0.6516075852427357  0.6964062418047010  0.1237427482397589
  0.6505243125605329  0.7052968738926949  0.6115775304802985
  0.3033642994991392  0.4499867239217481  0.4524237183333706
  0.3041330559485067  0.4560202977167229  0.9542415167704089
  0.2923345682414610  0.9496594440343513  0.4449041873978205
  0.3009452189788120  0.9548814115829135  0.9550629059063928
  0.8060001419007128  0.4527056832449433  0.4575050820989208
  0.8000481066191825  0.4539949418733808  0.9588953960252650
  0.7938179306233426  0.9389690740197566  0.4553981271424221
  0.7998101383674057  0.9545003974891527  0.9573345781895390
  0.3494756848370300  0.0547725631719789  0.2217558031802201
  0.3483924194470545  0.0447986631003883  0.7095905834783041
  0.3442746867062025  0.5421934046424098  0.2082021253250136
  0.3499143705901919  0.5481711612807181  0.7077281478859985
  0.8457950825162925  0.0400059752910453  0.2128820542371974
  0.8500574779695121  0.0456079983428525  0.7127655784971728
  0.8558111968928048  0.5555438703550228  0.2167493337505940
  0.8461019315082502  0.5455024350290472  0.7128818370502384
  0.2061820703648167  0.1451511435529499  0.3779352146907302
  0.2001898559720374  0.1546902526967460  0.8759987587301615
  0.1939998429430185  0.6467055305570871  0.3758282554808892
  0.1999518949074141  0.6539468343853564  0.8744379365839701
  0.6966357083798622  0.1466224319198456  0.3809096161896220
  0.6958669451344668  0.1518872445045961  0.8790918176487271
  0.7076654307530515  0.6573248787194400  0.3884291422363768
  0.6990547938825044  0.6539361981820705  0.8782704264772245
  0.4531253689402286  0.3025423097965523  0.0468689586919866
  0.4581309483677333  0.3019564520665423  0.5446691087294904
  0.4548963072939878  0.8015113548418881  0.0423971035783553
  0.4488572769507060  0.8069387493519676  0.5429975180373416
  0.9507100061799429  0.2988881301114503  0.0457682632311528
  0.9563522704965894  0.2977157030679093  0.5433133091567397
  0.9554987426048892  0.8060663342874695  0.0460297276408997
  0.9354408069085690  0.7987182663513142  0.5476401821396291
