Ge Si O 
 1.0000000000000000
     9.9853999925919137    0.0116224775099623    0.0032390394477219
    -4.9826346336660254    8.6301760852465446   -0.0000000185633427
     0.0035537086789648    0.0020516861849691   11.2749827420979098
 Ge  Si  O  
  22   2  48
Direct
  0.0067774807426500  0.2295981105729908  0.1699650201290962
  0.0029883917619402  0.2252905679582140  0.6685007046907703
 -0.0029883941707912  0.7223021731935668  0.1648326228026291
 -0.0067774814949923  0.7228206264515795  0.6633683134046475
  0.5017098552635945  0.2272081946718478  0.1677346959663641
  0.4982901408413491  0.2254983423817366  0.6655986276992367
  0.4972146380091694  0.7249987268371215  0.1686914367530811
  0.5027853646622317  0.7277840873245113  0.6646418981332201
  0.2779333282333991  0.2760258485962762 -0.0012588326244899
  0.2756160024804120  0.2767007409969497  0.4967135906137883
  0.2738544376643709  0.7752663496158947 -0.0015129578145281
  0.2716037112652704  0.7701992745315190  0.4971043706757355
  0.7774733326326425  0.2768597806211356  0.0028554159933805
  0.7765489338572815  0.2752234117987252  0.5028741301050041
  0.7704224699832238  0.7726308896291711  0.0011335003517657
  0.2234510666903419 -0.0013255227854641  0.3304592063059311
  0.2225266721557443 -0.0006135531116519  0.8304779162994368
  0.2295775337249947  0.5022084119086231  0.8321998370072683
  0.7283962959255932 -0.0014044350284835  0.3362289627729469
  0.7261455670897130  0.0014119176490439  0.8348462884169476
  0.7243839949520248  0.5010847377030856  0.3366197463985117
  0.7220666693228517  0.4980925219648842  0.8345921704785578
  0.7715920654745624  0.7722867466561044  0.5000962615322522
  0.2284079386524373  0.5006946818645829  0.3332370770002919
  0.0637141296751823  0.3589659033466813  0.2887507200241944
  0.0500215851125775  0.3494691586480768  0.7902169506981602
  0.0450913503508355  0.8457844102294689  0.2870644208314869
  0.0435481245490659  0.8485621862133171  0.7847982581644930
  0.5451274250786117  0.3500016551789314  0.2907047824506025
  0.5428930518913746  0.3465084071494707  0.7895178308094269
  0.5486324957148301  0.8529453402288124  0.2879851238340926
  0.5487290710956662  0.8491547851309116  0.7881493651264460
  0.1558034793499931  0.1997357263587756  0.1216939409476887
  0.1557897638185370  0.2012300737643412  0.6211518329200674
  0.1486408681468026  0.6952809429958484  0.1193986456844131
  0.1418754321406021  0.6924007025361868  0.6155114711523756
  0.6544027413309924  0.1998633038588791  0.1253372280006674
  0.6512836946764343  0.1983400742759062  0.6240265150838425
  0.6477855821104694  0.6951027285007007  0.1241480257982849
  0.6540591708425758  0.7048503780121824  0.6126883885358323
  0.2969192669297891  0.4510486816379425  0.4456013193366126
  0.3054726917584548  0.4564260861170270  0.9557570726562628
  0.2982576528116628  0.9488225879709723  0.4518700129303733
  0.2994492434654315  0.9538880058120341  0.9534864636167790
  0.8038307206290916  0.4538062769008173  0.4567094718846673
  0.8016672765078617  0.4549667806322141  0.9571435996838580
  0.7959721791442431  0.9380327464306717  0.4559568888392060
  0.7983468951837914  0.9530486575291368  0.9590635418420874
  0.3487162816799086  0.0470563724652269  0.2093068044991477
  0.3455972429824621  0.0454605677442054  0.7079960923943908
  0.3459408308110130  0.5507912089628727  0.2206449486082859
  0.3522144219268240  0.5473171358788054  0.7091853094856619
  0.8581245677110085  0.0505252634535687  0.2178218582690499
  0.8513591200312838  0.0466400752186466  0.7139346759312183
  0.8442102236533252  0.5454402989016691  0.2121814934123571
  0.8441965127386837  0.5439322413571051  0.7116393925951732
  0.1961692732365673  0.1499755469334365  0.3766238712704466
  0.1983327216855575  0.1532994951043201  0.8761897399627113
  0.2040278226433168  0.6420605678300534  0.3773764448026667
  0.2016531107915083  0.6547017593747887  0.8742697862719887
  0.7017423727912024  0.1505649489938943  0.3814633135286845
  0.7005507777897590  0.1544387795739277  0.8798468587322733
  0.7030807298917419  0.6541294181508406  0.3877320150823212
  0.6945273106311154  0.6509533976281326  0.8775762675607858
  0.4571069502931660  0.3036153667488112  0.0438155015921659
  0.4548725688411239  0.3048742424356135  0.5426285550578459
  0.4512709285021809  0.8004257129192131  0.0451839711075488
  0.4513675060369636  0.8043128415967469  0.5453482119995553
  0.9564518767969594  0.3050140759064572  0.0485350840405638
  0.9549086515447039  0.3006930844779199  0.5462689246058042
  0.9499784175504095  0.7994475901773719  0.0431163868281830
  0.9362858714033244  0.7952517767029328  0.5445826184167851
