Ge Si O 
 1.0000000000000000
    10.0042164346258282   -0.0000001467571514   -0.0000000000933242
    -5.0021083402007545    8.6194674999024734    0.0068994473964374
     0.0000000210085517    0.0087474261238552   11.2724252961327416
 Ge  Si  O  
  22   2  48
Direct
 -0.0011531271156915  0.2240735875467348  0.1669524870848750
  0.0041975293505394  0.2327153945191160  0.6669581934345458
 -0.0014070308944136  0.7246656393739058  0.1683261072964576
 -0.0017301232331414  0.7211902901869005  0.6665207463837838
  0.5041975293505427  0.2327153945191174  0.1669581934345496
  0.4988468728843169  0.2240735875467394  0.6669524870848756
  0.4982698767668584  0.7211902901869010  0.1665207463837910
  0.4985929691055955  0.7246656393739105  0.6683261072964548
  0.2739273111346036  0.2753343484085101 -0.0016594496055633
  0.2770796145322807  0.2788097297603039  0.5001459272701031
  0.2714821495005604  0.7672846288543836 -0.0002915402430578
  0.2747732819752925  0.7759264032852592  0.4997141853658373
  0.7770796145322837  0.2788097297603038  0.0001459272701035
  0.7739273111345989  0.2753343484085130  0.4983405503944310
  0.7747732819752919  0.7759264032852592 -0.0002858146341623
  0.7714821495005573  0.7672846288543879  0.4997084597569408
  0.2279945788289948  0.0042161374890768  0.3332871597406497
  0.2237784364757666 -0.0042161485885936  0.8333795025669385
  0.2227346561084411  0.4999999917203577  0.3333333248374102
  0.7237784364757704 -0.0042161485885884  0.3333795025669400
  0.7279945788289897  0.0042161374890752  0.8332871597406504
  0.7227346561084427  0.4999999917203573  0.8333333248374120
  0.2274128434212923  0.5000000019132234  0.8333333444749957
  0.7274128434212915  0.5000000019132288  0.3333333444749996
  0.0437798272907502  0.3454815254419830  0.2908084853650298
  0.0621843800876993  0.3596451184396036  0.7874624034969437
  0.0496042611577287  0.8526387300473982  0.2879716461145220
  0.0447034746375662  0.8421536990583187  0.7903529101631167
  0.5621843800877107  0.3596451184396094  0.2874624034969408
  0.5437798272907469  0.3454815254419817  0.7908084853650349
  0.5447034746375781  0.8421536990583287  0.2903529101631164
  0.5496042611577259  0.8526387300473944  0.7879716461145216
  0.1513748690506703  0.1992034056886945  0.1211941458861151
  0.1520224139262076  0.2005479717123137  0.6210485768190479
  0.1448913815353923  0.6904647635257239  0.1206286367881671
  0.1504148567203707  0.6957144906739126  0.6212770280499823
  0.6520224139262045  0.2005479717123191  0.1210485768190408
  0.6513748690506750  0.1992034056886947  0.6211941458861103
  0.6504148567203665  0.6957144906739123  0.1212770280499808
  0.6448913815353953  0.6904647635257285  0.6206286367881603
  0.3017625211448111  0.4580872813440832  0.4570669867915799
  0.2945632267830098  0.4487050193346573  0.9453311304781187
  0.3028077812929117  0.9563307116610701  0.4562610759236286
  0.3003259583285275  0.9469872257790372  0.9542895581431253
  0.7945632267830057  0.4487050193346538  0.4453311304781141
  0.8017625211448113  0.4580872813440770  0.9570669867915769
  0.8003259583285177  0.9469872257790252  0.4542895581431153
  0.8028077812929094  0.9563307116610691  0.9562610759236275
  0.3533387042731450  0.0530127523058240  0.2123770608281724
  0.3464770249252334  0.0436693200846035  0.7104055811037084
  0.3436752399670602  0.5419127354672588  0.2095996698144875
  0.3458581928283053  0.5512949772378987  0.7213355419050658
  0.8464770249252320  0.0436693200846071  0.2104055811037159
  0.8533387042731426  0.0530127523058221  0.7123770608281740
  0.8458581928283021  0.5512949772378938  0.2213355419050713
  0.8436752399670588  0.5419127354672638  0.7095996698144873
  0.2025497493188703  0.1578462923598044  0.3763137611659385
  0.1969655506690400  0.1473612395353242  0.8786950376525555
  0.1982982906207070  0.6545184469109063  0.3758581907927384
  0.2025392531641309  0.6403548617584118  0.8792042948919401
  0.6969655506690459  0.1473612395353209  0.3786950376525604
  0.7025497493188739  0.1578462923598049  0.8763137611659415
  0.7025392531641378  0.6403548617584133  0.3792042948919485
  0.6982982906207066  0.6545184469109047  0.8758581907927400
  0.4544266249669874  0.3095352677975877  0.0460380124727998
  0.4547004031823897  0.3042855369953326  0.5453896489538642
  0.4514744077769170  0.7994520019322628  0.0456181067972168
  0.4521714862667171  0.8007966204377998  0.5454725209941845
  0.9547004031823882  0.3042855369953284  0.0453896489538643
  0.9544266249669757  0.3095352677975867  0.5460380124727996
  0.9521714862667214  0.8007966204378021  0.0454725209941816
  0.9514744077769045  0.7994520019322617  0.5456181067972182
