Ge O 
 1.0000000000000000
     9.9881450611623279    0.0000066364996884   -0.0000132996479392
    -4.9940667832039276    8.6499908686611580    0.0000133444978723
    -0.0000139873385287    0.0000081303819670   11.3172250938541019
 Ge  O  
  24  48
Direct
  0.0000264374744526  0.2248735693068110  0.1666898925611501
  0.0000264374742476  0.2248735693067370  0.6666898925611915
  0.0000264374741946  0.7248735693069152  0.1666898925612713
  0.0000264374744919  0.7248735693071312  0.6666898925613890
  0.5000264374743407  0.2248735693066418  0.1666898925609789
  0.5000264374741742  0.2248735693067065  0.6666898925612529
  0.5000264374740722  0.7248735693065451  0.1666898925612091
  0.5000264374742285  0.7248735693068482  0.6666898925613133
  0.2751680061710661  0.2751680919937624  0.0000000465680412
  0.2751680061711043  0.2751680919940159  0.5000000465682450
  0.2751680061713579  0.7751680919937568  0.0000000465683901
  0.2751680061714788  0.7751680919939120  0.5000000465683656
  0.7751680061712423  0.2751680919940279  0.0000000465682774
  0.7751680061712272  0.2751680919942069  0.5000000465686331
  0.7751680061719171  0.7751680919941958  0.0000000465684443
  0.7751680061713756  0.7751680919942082  0.5000000465683649
  0.2248736210918881  0.0000265233207820  0.3333100608726661
  0.2248736210917464  0.0000265233206757  0.8333100608729653
  0.2248736210913643  0.5000265233207772  0.3333100608729216
  0.2248736210915100  0.5000265233206727  0.8333100608732176
  0.7248736210918790  0.0000265233209131  0.3333100608726922
  0.7248736210916574  0.0000265233206309  0.8333100608729883
  0.7248736210916851  0.5000265233207074  0.3333100608727769
  0.7248736210915416  0.5000265233209210  0.8333100608731393
  0.0459548098369779  0.3478723514630022  0.2888265126524860
  0.0459548098370213  0.3478723514631774  0.7888265126524869
  0.0459548098374869  0.8478723514629772  0.2888265126525321
  0.0459548098373176  0.8478723514625963  0.7888265126531180
  0.5459548098372994  0.3478723514629745  0.2888265126522706
  0.5459548098369811  0.3478723514629121  0.7888265126527735
  0.5459548098373878  0.8478723514632047  0.2888265126522938
  0.5459548098374368  0.8478723514629114  0.7888265126525972
  0.1521174177090153  0.1980903201542568  0.1221031763186503
  0.1521174177088727  0.1980903201540259  0.6221031763187997
  0.1521174177085450  0.6980903201546618  0.1221031763183453
  0.1521174177090389  0.6980903201548204  0.6221031763186132
  0.6521174177088745  0.1980903201540245  0.1221031763186583
  0.6521174177089035  0.1980903201538992  0.6221031763191606
  0.6521174177086480  0.6980903201544544  0.1221031763182063
  0.6521174177089138  0.6980903201548221  0.6221031763185976
  0.3018772887178989  0.4540196167135111  0.4554378411092752
  0.3018772887180997  0.4540196167134523  0.9554378411095373
  0.3018772887169343  0.9540196167125083  0.4554378411091001
  0.3018772887171707  0.9540196167126451  0.9554378411093377
  0.8018772887182825  0.4540196167135648  0.4554378411091253
  0.8018772887184662  0.4540196167135483  0.9554378411091987
  0.8018772887173944  0.9540196167131982  0.4554378411093192
  0.8018772887174406  0.9540196167128316  0.9554378411092531
  0.3478723416264052  0.0459546722134194  0.2111734152058971
  0.3478723416262142  0.0459546722132157  0.7111734152060492
  0.3478723416259489  0.5459546722133137  0.2111734152060872
  0.3478723416263324  0.5459546722138818  0.7111734152065596
  0.8478723416262611  0.0459546722134918  0.2111734152057500
  0.8478723416260918  0.0459546722135687  0.7111734152060968
  0.8478723416263763  0.5459546722136025  0.2111734152060407
  0.8478723416268406  0.5459546722139956  0.7111734152067761
  0.1980905048999185  0.1521175091243911  0.3778968997707394
  0.1980905048998763  0.1521175091247374  0.8778968997702126
  0.1980905049004797  0.6521175091250823  0.3778968997705528
  0.1980905049003240  0.6521175091248476  0.8778968997706841
  0.6980905049005310  0.1521175091247809  0.3778968997710141
  0.6980905048999992  0.1521175091244175  0.8778968997708959
  0.6980905049007012  0.6521175091248607  0.3778968997707793
  0.6980905049003338  0.6521175091249929  0.8778968997709163
  0.4540195724717122  0.3018773457090060  0.0445621549399575
  0.4540195724720334  0.3018773457092420  0.5445621549398695
  0.4540195724720519  0.8018773457091198  0.0445621549399833
  0.4540195724720977  0.8018773457090544  0.5445621549399385
  0.9540195724717908  0.3018773457089996  0.0445621549400737
  0.9540195724720449  0.3018773457089347  0.5445621549397343
  0.9540195724725455  0.8018773457090237  0.0445621549395977
  0.9540195724718057  0.8018773457087783  0.5445621549399580
