opti conp prop
name c00066.vasp
cell
 9.08694 7.55481 10.4761 90 108.333 90
frac 
Ge core 0.313820000000 0.296860000000 0.309830000000
Ge core 0.686180000000 0.296860000000 0.690170000000
Ge core 0.686180000000 0.703140000000 0.690170000000
Ge core 0.668950000000 0.296920000000 0.392620000000
Ge core 0.668950000000 0.703080000000 0.392620000000
Ge core 0.879680000000 0.000000000000 0.350160000000
Ge core 0.120320000000 0.000000000000 0.649840000000
Ge core 0.093070000000 0.000000000000 0.158230000000
Si core 0.313820000000 0.703140000000 0.309830000000
Si core 0.331050000000 0.296920000000 0.607380000000
Si core 0.331050000000 0.703080000000 0.607380000000
Si core 0.906930000000 0.000000000000 0.841770000000
O3 core 0.268740000000 0.279030000000 0.446100000000
O1 core 0.731260000000 0.279030000000 0.553900000000
O1 core 0.731260000000 0.720970000000 0.553900000000
O2 core 0.268740000000 0.720970000000 0.446100000000
O3 core 0.295480000000 0.500000000000 0.260860000000
O1 core 0.704520000000 0.500000000000 0.739140000000
O1 core 0.490600000000 0.234690000000 0.337530000000
O3 core 0.509400000000 0.234690000000 0.662470000000
O3 core 0.509400000000 0.765310000000 0.662470000000
O3 core 0.490600000000 0.765310000000 0.337530000000
O1 core 0.200440000000 0.174000000000 0.194980000000
O3 core 0.799560000000 0.174000000000 0.805020000000
O3 core 0.799560000000 0.826000000000 0.805020000000
O3 core 0.200440000000 0.826000000000 0.194980000000
O2 core 0.317860000000 0.500000000000 0.649090000000
O1 core 0.682140000000 0.500000000000 0.350910000000
O3 core 0.227920000000 0.173870000000 0.671620000000
O1 core 0.772080000000 0.173870000000 0.328380000000
O1 core 0.772080000000 0.826130000000 0.328380000000
O3 core 0.227920000000 0.826130000000 0.671620000000
O1 core 0.000000000000 0.000000000000 0.500000000000
O1 core 0.971960000000 0.000000000000 0.241930000000
O3 core 0.028040000000 0.000000000000 0.758070000000
O3 core 0.000000000000 0.000000000000 0.000000000000

space
P 1

species
Ge core  Ge core
Si core  Si core
O1 core  O1 core
O2 core  O2 core
O3 core  O3 core
O1 shel  O1 shel
O2 shel  O2 shel
O3 shel  O3 shel
end
library Germanate
switch_minimiser rfo gnorm 0.05
stepmx opt 0.1
dump every 1 c00066.vasp.grs
output cif c00066.vasp.cif
