Geometry = GenFormat {
72  S
Ge   Si   O
1 1      2.564075527300000      5.979641200000000      5.917604592500000
2 2      1.516408866900000      3.674346000000000      7.707630402500000
3 2      6.519662133099999      3.674346000000000      0.914844597500000
4 2      6.519662133099999     11.353653999999999      0.914844597500000
5 2      1.516408866900000     11.353653999999999      7.707630402500000
6 2      6.741408866900000     11.188346000000001      7.707630402500000
7 2      1.294662133100000     11.188346000000001      0.914844597500000
8 2      1.294662133100000      3.839654000000000      0.914844597500000
9 2      6.741408866900000      3.839654000000000      7.707630402500000
10 2      2.404314750699999      5.979641200000000      2.860074957500000
11 2      5.631756249300000      5.979641200000000      5.762400042499999
12 2      5.631756249300000      9.048358799999999      5.762400042499999
13 2      2.404314750699999      9.048358799999999      2.860074957500000
14 2      7.629314750699999     13.493641200000001      2.860074957500000
15 2      0.406756249300000     13.493641200000001      5.762400042499999
16 2      0.406756249300000      1.534358800000000      5.762400042499999
17 2      7.629314750699999      1.534358800000000      2.860074957500000
18 2      5.471995472699999      5.979641200000000      2.704870407500000
19 2      5.471995472699999      9.048358799999999      2.704870407500000
20 2      2.564075527300000      9.048358799999999      5.917604592500000
21 2      7.789075527300000     13.493641200000001      5.917604592500000
22 2      0.246995472700000     13.493641200000001      2.704870407500000
23 2      0.246995472700000      1.534358800000000      2.704870407500000
24 2      7.789075527300000      1.534358800000000      5.917604592500000
25 3      5.225000000000000      3.405344800000000      0.000000000000000
26 3      5.225000000000000     11.622655200000001      0.000000000000000
27 3      0.000000000000000     10.919344800000001      0.000000000000000
28 3      0.000000000000000      4.108655199999999      0.000000000000000
29 3      1.370883776500000      2.466094800000000      6.652239462500000
30 3      6.665187223499999      2.466094800000000      1.970235537500000
31 3      6.665187223499999     12.561905200000000      1.970235537500000
32 3      1.370883776500000     12.561905200000000      6.652239462500000
33 3      6.595883776500000      9.980094800000000      6.652239462500000
34 3      1.440187223500000      9.980094800000000      1.970235537500000
35 3      1.440187223500000      5.047905200000000      1.970235537500000
36 3      6.595883776500000      5.047905200000000      6.652239462500000
37 3      1.689216478100000      5.059927600000000      6.907464722500000
38 3      6.346854521899999      5.059927600000000      1.715010277500000
39 3      6.346854521899999      9.968072400000000      1.715010277500000
40 3      1.689216478100000      9.968072400000000      6.907464722500000
41 3      6.914216478100000     12.573927600000001      6.907464722500000
42 3      1.121854521900000     12.573927600000001      1.715010277500000
43 3      1.121854521900000      2.454072400000000      1.715010277500000
44 3      6.914216478100000      2.454072400000000      6.907464722500000
45 3      2.612500000000000      3.757000000000000      0.000000000000000
46 3      7.837499999999999      3.757000000000000      0.000000000000000
47 3      7.837499999999999     11.271000000000001      0.000000000000000
48 3      2.612500000000000     11.271000000000001      0.000000000000000
49 3      3.915133670600000      5.853406000000001      2.315996785000000
50 3      4.120937329399999      5.853406000000001      6.306478215000000
51 3      4.120937329399999      9.174594000000001      6.306478215000000
52 3      3.915133670600000      9.174594000000001      2.315996785000000
53 3      9.140133670599999     13.367405999999999      2.315996785000000
54 3     -1.104062670600000     13.367405999999999      6.306478215000000
55 3     -1.104062670600000      1.660594000000000      6.306478215000000
56 3      9.140133670599999      1.660594000000000      2.315996785000000
57 3      2.346413995799999      5.501750800000000      4.395737755000000
58 3      5.689657004199999      5.501750800000000      4.226737245000000
59 3      5.689657004199999      9.526249200000001      4.226737245000000
60 3      2.346413995799999      9.526249200000001      4.395737755000000
61 3      7.571413995800000     13.015750799999999      4.395737755000000
62 3      0.464657004200000     13.015750799999999      4.226737245000000
63 3      0.464657004200000      2.012249200000000      4.226737245000000
64 3      7.571413995800000      2.012249200000000      4.395737755000000
65 3      1.925653291600000      7.514000000000000      2.755743010000000
66 3      6.110417708399999      7.514000000000000      5.866731990000000
67 3      7.150653291599999      0.000000000000000      2.755743010000000
68 3      0.885417708400000      0.000000000000000      5.866731990000000
69 3      2.097240948500000      7.514000000000000      6.065911162500000
70 3      5.938830051500000      7.514000000000000      2.556563837500000
71 3      7.322240948499999      0.000000000000000      6.065911162500000
72 3      0.713830051500000      0.000000000000000      2.556563837500000
0.000000000000000      0.000000000000000      0.000000000000000
10.449999999999999      0.000000000000000      0.000000000000000
0.000000000000000     15.028000000000000      0.000000000000000
-2.413929000000000      0.000000000000000      8.622475000000000
}
Hamiltonian = DFTB {
  SCC = Yes
  SCCTolerance = 1e-08
  MaxSCCIterations = 500
  MaxAngularMomentum = {
    Ge = "d"
    O = "p"
    Si = "d"
  }
  SlaterKosterFiles = Type2FileNames {
    Prefix = "./SKFiles/"
    Separator = "-"
    Suffix = ".skf"
    LowerCaseTypeName = No
  }
  KPointsAndWeights = SupercellFolding {
1 0 0
0 1 0
0 0 1
0.5 0.5 0.5
  }
  ElectricField = {}
  Charge = 0
  PolynomialRepulsive = {}
  ShellResolvedSCC = No
  OldSKInterpolation = No
  ReadInitialCharges = No
  InitialCharges = {}
  EwaldParameter = 0.0000000000000000
  EwaldTolerance = 1.0000000000000001E-009
  ConvergentSCCOnly = Yes
  HCorrection = None {}
  SpinPolarisation = {}
  Solver = RelativelyRobust {}
  OnSiteCorrection = {}
  Dispersion = {}
  Solvation = {}
  Electrostatics = GammaFunctional {}
  ThirdOrder = No
  ThirdOrderFull = No
  Differentiation = FiniteDiff {
    Delta = 1.2207031250000000E-004
  }
  ForceEvaluation = "Traditional"
  Mixer = Broyden {
    MixingParameter = 0.20000000000000001
    InverseJacobiWeight = 1.0000000000000000E-002
    MinimalWeight = 1.0000000000000000
    MaximalWeight = 100000.00000000000
    WeightFactor = 1.0000000000000000E-002
  }
  Filling = Fermi {
    Temperature = 0.0000000000000000
    IndependentKFilling = No
  }
}
Driver = GeometryOptimization {
  LatticeOpt = Yes
  Optimiser = Rational {
    DiagLimit = 1.0e-2
  }
  AppendGeometries = Yes
  FixAngles = No
  FixLengths = {
 No No No
  }
  Isotropic = No
  MovedAtoms = "1:-1"
  Convergence = {
    Energy = 1.7976931348623157E+308
    GradNorm = 1.7976931348623157E+308
    GradElem = 1.0000000000000000E-004
    DispNorm = 1.7976931348623157E+308
    DispElem = 1.7976931348623157E+308
  }
  MaxSteps = 1440
  OutputPrefix = "geo_end"
}
Parallel = {
  Groups = 1
  UseOmpThreads = Yes
  Blacs = BlockSize {
32
  }
}
Options = {
  WriteDetailedOut = Yes
  RandomSeed = 0
  WriteAutotestTag = No
  WriteDetailedXML = No
  WriteResultsTag = No
  WriteHS = No
  WriteRealHS = No
  MinimiseMemoryUsage = No
  ShowFoldedCoords = No
  TimingVerbosity = 1
  WriteCharges = Yes
  WriteChargesAsText = No
  BinaryAccessTypes = {
 "stream"
  }
}
ParserOptions = {
  ParserVersion = 14
  WriteHSDInput = Yes
  StopAfterParsing = No
  IgnoreUnprocessedNodes = No
}
Reks = None {}
Analysis = {
  ProjectStates = {}
  WriteEigenvectors = No
  WriteBandOut = Yes
  MullikenAnalysis = Yes
  WriteNetCharges = No
  AtomResolvedEnergies = No
  PrintForces = No
}
ExcitedState = {}
