MC generated
1.00000000
 10.055564    0.000000    0.000000
 -5.027782    8.708374    0.000000
  0.000000    0.000000   11.037836
 Ge              Si              O               
   4   20   48
Direct
  0.000000    0.238645    0.166667
  0.000000    0.238645    0.666667
  0.261355    0.261355    0.000000
  0.238645    0.500000    0.833333
  0.000000    0.738645    0.166667
  0.000000    0.738645    0.666667
  0.500000    0.238645    0.166667
  0.500000    0.238645    0.666667
  0.500000    0.738645    0.166667
  0.500000    0.738645    0.666667
  0.261355    0.261355    0.500000
  0.261355    0.761355    0.000000
  0.261355    0.761355    0.500000
  0.761355    0.261355    0.000000
  0.761355    0.261355    0.500000
  0.761355    0.761355    0.000000
  0.761355    0.761355    0.500000
  0.238645    0.000000    0.333333
  0.238645    0.000000    0.833333
  0.238645    0.500000    0.333333
  0.738645    0.000000    0.333333
  0.738645    0.000000    0.833333
  0.738645    0.500000    0.333333
  0.738645    0.500000    0.833333
  0.080370    0.372852    0.268667
  0.080370    0.372852    0.768667
  0.080370    0.872852    0.268667
  0.080370    0.872852    0.768667
  0.580370    0.372852    0.268667
  0.580370    0.372852    0.768667
  0.580370    0.872852    0.268667
  0.580370    0.872852    0.768667
  0.127148    0.207518    0.102000
  0.127148    0.207518    0.602000
  0.127148    0.707518    0.102000
  0.127148    0.707518    0.602000
  0.627148    0.207518    0.102000
  0.627148    0.207518    0.602000
  0.627148    0.707518    0.102000
  0.627148    0.707518    0.602000
  0.292482    0.419630    0.435333
  0.292482    0.419630    0.935333
  0.292482    0.919630    0.435333
  0.292482    0.919630    0.935333
  0.792482    0.419630    0.435333
  0.792482    0.419630    0.935333
  0.792482    0.919630    0.435333
  0.792482    0.919630    0.935333
  0.372852    0.080370    0.231333
  0.372852    0.080370    0.731333
  0.372852    0.580370    0.231333
  0.372852    0.580370    0.731333
  0.872852    0.080370    0.231333
  0.872852    0.080370    0.731333
  0.872852    0.580370    0.231333
  0.872852    0.580370    0.731333
  0.207518    0.127148    0.398000
  0.207518    0.127148    0.898000
  0.207518    0.627148    0.398000
  0.207518    0.627148    0.898000
  0.707518    0.127148    0.398000
  0.707518    0.127148    0.898000
  0.707518    0.627148    0.398000
  0.707518    0.627148    0.898000
  0.419630    0.292482    0.064667
  0.419630    0.292482    0.564667
  0.419630    0.792482    0.064667
  0.419630    0.792482    0.564667
  0.919630    0.292482    0.064667
  0.919630    0.292482    0.564667
  0.919630    0.792482    0.064667
  0.919630    0.792482    0.564667
