Ge Si O 
 1.0000000000000000
     9.8826392461274164    0.0118021663568194    0.0035673259594778
    -4.9310986458486950    8.5409133678295213   -0.0000000113050985
     0.0039482126440253    0.0022794855495389   10.8925552748839678
 Ge  Si  O  
   1  23  48
Direct
 -0.0000000000504940  0.2319916782865492  0.1666666656774959
  0.0000000013250884  0.2323629365302890  0.6666666666816219
  0.0000000016692155  0.7374247206155207  0.1666666648576258
  0.0000000008762730  0.7381079057061070  0.6666666653509683
  0.5055627781333003  0.2364657583517525  0.1654379407843105
  0.5014901108500992  0.2356958195439272  0.6652974801251960
  0.4944372253333196  0.7309029810844833  0.1678953903405703
  0.4985098905656976  0.7342057097383289  0.6680358525395039
  0.2724249457112934  0.2664087445177871 -0.0001079948256612
  0.2656095712291635  0.2655414085837722  0.4996631499757928
  0.2628989286976101  0.7632763984092382 -0.0006634652393172
  0.2664388340530647  0.7690730973412142  0.5007101314172886
  0.7660688325153530  0.2667828856464135 -0.0032906406786881
  0.7661375758376623  0.2639429043446202  0.4989219424429249
  0.7618447732669030  0.7653387646668479  0.0018289868991087
  0.7620001523990773  0.7632302009791730  0.5012915075866121
  0.2381552267028232  0.0034939911286317  0.3315043442861043
  0.2379998477075126  0.0012300452148961  0.8320418251594124
  0.2339311691263181  0.5007140538583811  0.3366239711940490
  0.2338624271020421  0.4978053283009302  0.8344113892986736
  0.7275750533913109 -0.0060162028279752  0.3334413268740278
  0.7343904311531413 -0.0000681646749832  0.8336701818374536
  0.7371010741250484  0.5003774717818809  0.3339967968332769
  0.7335611685800123  0.5026342626972552  0.8326232002765227
  0.0664480317783709  0.3670281315559250  0.2855870165222086
  0.0743007791710633  0.3635240407193591  0.7733746735266916
  0.0767648485020636  0.8698780038642837  0.2721634546454493
  0.0754293128371098  0.8700056792585746  0.7726681204339179
  0.5770940597008070  0.3668378553949878  0.2728706428684509
  0.5741311033281453  0.3688286181587627  0.7707386593924372
  0.5638746835731502  0.8592980610436730  0.2772843131511823
  0.5735856111506515  0.8650794160026282  0.7747738822107717
  0.1471474535061497  0.2023544825123260  0.1112995413070691
  0.1333750496394176  0.2046989603288679  0.6058692327964401
  0.1315132867631383  0.7079064080757987  0.1053486907287416
  0.1332383500729867  0.7106532776221153  0.6058549884965837
  0.6403021697302411  0.2081784258477423  0.1078582621289192
  0.6348508921920052  0.2076450418610648  0.6055019558518130
  0.6302539392013496  0.7061061166043517  0.1084502000319460
  0.6305816423290201  0.7043065077614969  0.6078234679494257
  0.2941505354820680  0.4291709404615391  0.4432493336769904
  0.2922484602937043  0.4261078974022769  0.9423910787066165
  0.2946314589222900  0.9304940626369380  0.4399319158610782
  0.2932991068474089  0.9252109354819780  0.9384765780712971
  0.7953247884651078  0.4264293752161772  0.4399755243827652
  0.7887839139360175  0.4274345052852473  0.9394706422863435
  0.7862123656001041  0.9233853174442221  0.4416814153616629
  0.7901784945283385  0.9278367500694221  0.9430109780719268
  0.3697460599125157  0.0758521788371660  0.2248831299933074
  0.3694183539523616  0.0737248657827685  0.7255098628909994
  0.3596978285750485  0.5678762605369632  0.2254750676762419
  0.3651491035252092  0.5727941501599091  0.7278313721818899
  0.8528525440684184  0.0552070299468013  0.2220337901228195
  0.8666249466781740  0.0713239101719023  0.7274640954669209
  0.8684867116563680  0.5763931238403195  0.2279846381662662
  0.8667616477048533  0.5774149287927486  0.7274783407783717
  0.2098215059714680  0.1376582531473601  0.3903223585091424
  0.2137876379126016  0.1371729492844816  0.8916519198645310
  0.2112160890848432  0.6386505904709737  0.3938626928818800
  0.2046752135118533  0.6311045837785261  0.8933578108950414
  0.7077515425139420  0.1338594362933564  0.3909422557278517
  0.7058494683985860  0.1350204031425807  0.8900839994623883
  0.7067008949491831  0.6319118277819172  0.3948567583453914
  0.7053685443105191  0.6358626023065412  0.8934014180939803
  0.4361253146916474  0.2954233819872883  0.0560490234732972
  0.4264143863383403  0.2914938068970707  0.5585594559682024
  0.4229059373871854  0.7897437980855396  0.0604626971271674
  0.4258688942952655  0.7946975155900315  0.5625946782752049
  0.9335519682273512  0.3005801058866282  0.0477463203841870
  0.9256992191113241  0.2892232636579296  0.5599586652090049
  0.9232351461874826  0.7931131557431157  0.0611698834077033
  0.9245706831816941  0.7945763674406553  0.5606652169380507
