Ge Si O 
 1.0000000000000000
     9.9724732476627551   -0.0004802058869829   -0.0105613442396741
    -4.9866528633408480    8.6406596815283727    0.0063503106113377
    -0.0115946173190509    0.0013471045982727   11.2522051939559198
 Ge  Si  O  
  21   3  48
Direct
  0.0008704025017115  0.2209487775168873  0.1654042727909496
  0.0047197753502678  0.2247328041571008  0.6653788995929649
 -0.0007324165490859  0.7306301713100601  0.1675963739328807
 -0.0044422059628267  0.7252429258865314  0.6677438319037030
  0.4994122024303602  0.2244158574866442  0.1701235282852477
  0.5043506426715239  0.2256295633313399  0.6694321654014561
  0.5006119449821338  0.7275700727686073  0.1634338191192457
  0.2790535290658045  0.2795099741450833 -0.0019372496126567
  0.2797339510957086  0.2699333929411425  0.4970722982030654
  0.2725511959548917  0.7776400638254537 -0.0013027004729930
  0.2709233498716643  0.7712932996315292  0.4989318217853700
  0.7710552443556492  0.2663654240790354  0.0012714704582335
  0.7774164672654340  0.2768724096546610  0.5011885685748280
  0.7677598833980995  0.7774781119581939  0.5026120410172065
  0.2248544257927231  0.0033166359630529  0.8320944644929453
  0.2276885759641610  0.4968461332605551  0.3303724460750970
  0.2298415645404523  0.5064136081619099  0.8302819181671548
  0.7228976744428754  0.0026470313407227  0.3325988556403630
  0.7251239681140639 -0.0069071136241661  0.8319301777763419
  0.7250567470131207  0.5030676042339063  0.3372035102476329
  0.7246814923584226  0.4988469628530234  0.8393426633681244
  0.4968537359725882  0.7286127666395951  0.6645884235099404
  0.7719178041078121  0.7722597473976039  0.0019738986331683
  0.2286355512721192 -0.0016872392952630  0.3330113014591999
  0.0475954998482157  0.3449606414855122  0.2872509627968517
  0.0525320112550300  0.3526164087307627  0.7848950877916310
  0.0622667478874750  0.8604481527977794  0.2864255920982283
  0.0458614142826835  0.8495877296955604  0.7898661419688259
  0.5470715675293228  0.3514587571564444  0.2902875892165863
  0.5455632810491158  0.3477566832033855  0.7925427120335953
  0.5448934782061968  0.8480596178351841  0.2879071374206510
  0.5496524374526871  0.8459480316203402  0.7773693388571232
  0.1558698582918702  0.1993826402986653  0.1205196832199606
  0.1557970101145118  0.1965500712607608  0.6195915347521481
  0.1462607998884952  0.6982931881224417  0.1187795732107254
  0.1442204060578754  0.6956186988039676  0.6192562718540525
  0.6492216733867580  0.1932860549711934  0.1251837171141200
  0.6577911205714937  0.1997676046446039  0.6260457151728118
  0.6536283375706325  0.7059336901265972  0.1141413585745528
  0.6376344172456244  0.7033612432179838  0.6207612869828102
  0.3068822656585668  0.4479018177370078  0.4498726886290557
  0.3088565289081097  0.4596488056602622  0.9519987520296380
  0.2942406991296278  0.9453482282124877  0.4456452427092804
  0.2980403585389382  0.9574863253397485  0.9577490111739517
  0.8030991322182305  0.4567649354022097  0.4595257459124014
  0.8026975604529002  0.4473235386630220  0.9579226628336743
  0.7973085653263335  0.9572118548779402  0.4574467561462972
  0.7932238826371047  0.9348475571067166  0.9531217878776944
  0.3478530914223171  0.0494659970972810  0.2213864890232572
  0.3498748728631236  0.0458256252647307  0.7109078241925404
  0.3497472109418641  0.5468539737108372  0.2066056341278534
  0.3556972523747891  0.5632790490887342  0.7091589252566548
  0.8472015754622528  0.0437769771856808  0.2113313975091621
  0.8561355056353114  0.0459556963757095  0.7141508843187367
  0.8508478876674487  0.5524634219078800  0.2165196507821877
  0.8435670144792167  0.5474068064236929  0.7142174522765217
  0.2059795384125749  0.1399805220282033  0.3786876372051249
  0.2008211914442202  0.1579897562516950  0.8743856791769412
  0.1985562375230666  0.6462406044335680  0.3774157632341575
  0.1982949406136562  0.6555477326875790  0.8753053217748036
  0.6965198919872156  0.1553003512941561  0.3775547057153740
  0.6927566397774476  0.1405350370738701  0.8801924173702043
  0.6952691106812136  0.6543000132758757  0.3794847183881908
  0.7045612767586097  0.6514552264845814  0.8912876657719503
  0.4554535222720692  0.3011821983578608  0.0456099888210121
  0.4594882089508175  0.3008578037087480  0.5447714987444187
  0.4524220218303141  0.8060028393067853  0.0426319081288802
  0.4461808859880909  0.7971896915777671  0.5525359780908182
  0.9515081057570818  0.2932286311370096  0.0416918452918176
  0.9563806556465055  0.3000547393736130  0.5424000794756064
  0.9381490858266486  0.8007187435732698  0.0493289073642935
  0.9456897161659671  0.8031472997865824  0.5479844772326932
