Ge Si O 
 1.0000000000000000
     9.9951310700930058    0.0139912497339497    0.0060884666932091
    -4.9854510456540853    8.6134798174379039   -0.0007631791664429
     0.0066998715531943    0.0029366460271706   11.2534582131169874
 Ge  Si  O  
  21   3  48
Direct
 -0.0016975697533408  0.2195772570825910  0.1678004205077087
  0.0020148738391883  0.2242168298066690  0.6698401540867039
  0.0044243507063275  0.7338683152820094  0.1664690756167960
 -0.0073081883749012  0.7242599719285628  0.6652000467151156
  0.5006642011915028  0.2280905575226948  0.1696335391118753
  0.4988953692492234  0.2205587756289550  0.6666172738686910
  0.4969205692060720  0.7222551929862220  0.1659293190631046
  0.5051359844861022  0.7353315467372908  0.6640282446863274
  0.2759871017028836  0.2771209006548629 -0.0002629075294621
  0.2745390836986962  0.2703111986534191  0.4997677841534994
  0.2766715357948545  0.7793022614456374 -0.0008485445486990
  0.2708712319251037  0.7766022042958556  0.4971367079452226
  0.7719722917203117  0.2672663498560472  0.0006990277321705
  0.7763391180429355  0.2724965872165351  0.5008322526489665
  0.7726091871396146  0.7741709158732162 -0.0015966374657055
  0.2214633505506819  0.0002404011412739  0.8317723663106454
  0.2229880043671323  0.4960532736656398  0.3331599109090838
  0.2315113378299300  0.5062890467670206  0.8320357911555188
  0.7229445739602697 -0.0063278581465080  0.3347743500218043
  0.7304853948823573  0.5052034112332091  0.3367334941627184
  0.7224125873024091  0.4942306118215219  0.8343489957470296
  0.7728718981039275  0.7749962278721380  0.5003542277623942
  0.2274587883512574  0.0032703118274339  0.3321204136892610
  0.7283606994186878  0.0004304615112198  0.8338200418401930
  0.0438873430038785  0.3418460586107688  0.2911366159598845
  0.0528031761491652  0.3550751746693389  0.7875708369572308
  0.0629841348316416  0.8636853263754553  0.2852628879662341
  0.0416388119799535  0.8486496318809124  0.7878417316804599
  0.5516863003057602  0.3561356460285744  0.2896945073413645
  0.5436692025630931  0.3404335222418244  0.7914080560324798
  0.5431290996212811  0.8429054810082526  0.2904355055625406
  0.5646277797091370  0.8607187809627793  0.7856527939392602
  0.1517610217794402  0.1962665021871634  0.1214862175761171
  0.1497127211516949  0.1918795423269705  0.6218241280874153
  0.1512413885085225  0.6998716682428239  0.1199272517695393
  0.1442874580453753  0.6990290541705990  0.6174126916295294
  0.6467138164368480  0.1927064905277079  0.1226041330303712
  0.6521822746429954  0.1955533867314838  0.6230006932953834
  0.6506286086790107  0.6977231849585093  0.1218185701006935
  0.6525309063031706  0.7073121849869554  0.6108969094567159
  0.3009910522377443  0.4495440211558807  0.4548537963891165
  0.3050187512574518  0.4580303297048087  0.9558135913191428
  0.2909953504469256  0.9502722839854447  0.4454675783962849
  0.2992144944138171  0.9578113137902086  0.9563148016959910
  0.8068394399342490  0.4532338677867498  0.4562628929217590
  0.8004862719783843  0.4470489150698410  0.9553374879060548
  0.7963481737370505  0.9405728004417891  0.4556239060996458
  0.7927487933513577  0.9479298565248221  0.9469857744016239
  0.3481962523429071  0.0542719776699306  0.2216491834986241
  0.3437858506649880  0.0412529012119829  0.7087530979182968
  0.3446555813806844  0.5420551672661114  0.2093505666792468
  0.3571546470663270  0.5549693125928252  0.7109387324868687
  0.8463280744904517  0.0393583858274762  0.2119279506651210
  0.8494188929065548  0.0519568996827972  0.7234907279019044
  0.8537550631594739  0.5560054104790282  0.2142550532378421
  0.8444309119867741  0.5430724415856184  0.7108678070633450
  0.2041065293164098  0.1449282698668182  0.3780381468544945
  0.1989705649943654  0.1559998594298865  0.8754908910041667
  0.1970233083051913  0.6491843849200609  0.3766925588167109
  0.2050216144013264  0.6599657687231132  0.8740330661638864
  0.6982234307537147  0.1474960263234565  0.3791822639117292
  0.7023621393513584  0.1404362785429433  0.8798780545338262
  0.7081841267704310  0.6578141191026895  0.3873073609980093
  0.6957273442083811  0.6469762198678817  0.8779486585613262
  0.4537962173678137  0.3031107404391390  0.0461226001991985
  0.4542882977257439  0.3007196157442633  0.5452314199193619
  0.4541418952955266  0.8043567455126202  0.0447170441861973
  0.4511996573070943  0.8129658555062125  0.5463152064003139
  0.9511460882368232  0.2971143889777464  0.0463444241878787
  0.9534238753496435  0.2956645754598527  0.5452372775294818
  0.9534549740107777  0.8081444905350401  0.0445053047845329
  0.9365425161961227  0.7981303876962742  0.5467238947912353
