Ge Si O 
 1.0000000000000000
     9.9942638838126090    0.0137806605030816    0.0090047521766656
    -4.9851973025661289    8.6206796919293573    0.0016024950985861
     0.0099106308475279    0.0077739811443392   11.2494397178075847
 Ge  Si  O  
  21   3  48
Direct
 -0.0005473557425067  0.2225521885447862  0.1684477950939775
  0.0074829339582032  0.2328937013299827  0.6682175220537357
 -0.0010062186316009  0.7254849290091709  0.1680848011684767
 -0.0079450825616143  0.7215234455990573  0.6651987020533092
  0.5065683537718207  0.2369270662384411  0.1684051577176348
  0.4993988821156509  0.2233138078631487  0.6672772394664561
  0.4966067570109399  0.7203879844124209  0.1651004840026709
  0.4996809349704266  0.7265271470643394  0.6649746178947117
  0.2757222451901150  0.2771067088918114 -0.0017252508989827
  0.2801024777433047  0.2815266945264617  0.5000644840856829
  0.2708993186003442  0.7676068514137475 -0.0014352695573398
  0.2716783019076074  0.7772051546750872  0.4984988112438729
  0.7774621629037920  0.2779276221161982  0.0015159512889220
  0.7755141133856329  0.2723434763747345  0.4997459725956108
  0.7739326100106373  0.7747532008142297 -0.0005309088920573
  0.2282159263129258  0.0075232760589812  0.3317787482903277
  0.2220013937893182 -0.0038387338813669  0.8318992866772317
  0.2223430107358754  0.5005064974740064  0.3330920310094376
  0.7235442360852299 -0.0104119261627159  0.3347503596690168
  0.7287270658195159  0.0043613174222081  0.8334623244409557
  0.7215274566706411  0.4978307750932566  0.8346234291131636
  0.7673880849896308  0.7630772476639597  0.4996334620926331
  0.2307397796544722  0.5019909356818262  0.8321094979498680
  0.7293303544982895  0.5012849846700015  0.3367265666249383
  0.0435097890092360  0.3457081607499539  0.2913412565003975
  0.0653716780263396  0.3616451065855196  0.7874110998273062
  0.0508655319863243  0.8561459801384188  0.2860148453769221
  0.0419985909344076  0.8460268545886961  0.7873580815516366
  0.5634333214195976  0.3638115659429002  0.2893268928669960
  0.5428099900910157  0.3440230146416613  0.7917410000752535
  0.5434435174575163  0.8413734262420662  0.2889437477377160
  0.5523020221718381  0.8528916243171660  0.7858731576556567
  0.1533822604627693  0.1999723870777405  0.1215177785358401
  0.1560438473685783  0.2016435253528455  0.6217724106695108
  0.1442517003260299  0.6894312909695849  0.1196564360910264
  0.1437526757093233  0.6963514530645466  0.6179066132619530
  0.6545241024505586  0.2034682652493567  0.1241449189929867
  0.6530707508447373  0.1988092802571627  0.6232055288253823
  0.6499271726616652  0.6951033928102532  0.1216902778639411
  0.6454266709574210  0.6961636938414214  0.6100757050403669
  0.3032442206509359  0.4604495819580400  0.4570919150354714
  0.2974079754316362  0.4509505187841574  0.9448043577934153
  0.2992620919116668  0.9576697480699496  0.4560887165660094
  0.2965885504726899  0.9461365098335301  0.9536463552448667
  0.7969863125400579  0.4450439423664408  0.4452165133341727
  0.8019329657501184  0.4571756492947516  0.9582787069060585
  0.7922532473053087  0.9277841372149198  0.4525817370707382
  0.8016732672495874  0.9552565341966522  0.9570956922652255
  0.3560229813137472  0.0567104375637045  0.2124200787697565
  0.3465544433948071  0.0430192576025582  0.7098241370334686
  0.3424567779992412  0.5413687853359063  0.2084666029949769
  0.3491468200862988  0.5527970274750732  0.7196121952408873
  0.8500143793033641  0.0414739148630009  0.2134721718813234
  0.8561746445134460  0.0543182815817288  0.7136548912269310
  0.8465827885583892  0.5545225229927243  0.2237081373731761
  0.8426879819404771  0.5409678826645686  0.7107918146855079
  0.2039257627010909  0.1619392432409728  0.3753909863530909
  0.1981040612786981  0.1495161096662009  0.8782670993001553
  0.1976855998150115  0.6555789788341883  0.3743587364493732
  0.2047236469925965  0.6422435934981159  0.8770114764905933
  0.6975190159634407  0.1407077118316915  0.3826397623732948
  0.7009628150224594  0.1564046327069116  0.8779963605011737
  0.7081328073014641  0.6408262293753749  0.3898285316159352
  0.6973290609197951  0.6534391949913995  0.8753435810308512
  0.4566146957181250  0.3123022518769668  0.0463883360667226
  0.4571515883259237  0.3049213926349764  0.5451186564171071
  0.4512059185004625  0.8001142995720500  0.0441710021799978
  0.4490694448132739  0.8037505731188431  0.5452748424082523
  0.9543143616667688  0.3008461004454405  0.0458641735370900
  0.9564671534157945  0.3069991506205508  0.5461720182212508
  0.9513764015853093  0.7990414548614996  0.0441032920647934
  0.9329468524914880  0.7927509762028130  0.5474215555095217
