Ge Si O 
 1.0000000000000000
     9.9984786464801267    0.0097204963784104    0.0010848419286665
    -4.9908215663276483    8.6180155447606790    0.0043771748350957
     0.0012009852332809    0.0062896035591486   11.2501565516280788
 Ge  Si  O  
  21   3  48
Direct
 -0.0011717233076869  0.2226030040821152  0.1700701546780832
  0.0017871720149702  0.2208523872467762  0.6681304946354221
 -0.0005239687311698  0.7250431764298866  0.1664772713069676
 -0.0023890458653097  0.7330724070560825  0.6650779581958097
  0.5006960798346529  0.2252086365975960  0.1677467118575033
  0.4990525108643004  0.2240485416140408  0.6684336240570177
  0.5022333041950792  0.7312572485357099  0.1655249707141790
  0.5000050462484935  0.7267330942038795  0.6638035883820214
  0.2726691049303105  0.2684471345752141 -0.0003451637824749
  0.2779744658145800  0.2791376978952637  0.4996547485707837
  0.2734268763720785  0.7757116602394126 -0.0031533945319228
  0.2730817575370698  0.7798573380387928  0.4989530297141148
  0.7756262774622934  0.2758873097013893  0.0011131107507521
  0.7729282368013408  0.2637802623924607  0.5011803401949187
  0.7753654579963886  0.7770883947531974  0.0002802293472007
  0.2230811259984385  0.0036040940479437  0.3318699387973912
  0.2270841489428443  0.5047188366922967  0.3331030939824053
  0.2276993299378481  0.4978469036396995  0.8321338698981241
  0.7236841669795780  0.0004300678768251  0.8340739673528020
  0.7265609803534784  0.4969763690258303  0.3365891367950718
  0.7266389871993220  0.5024977729710446  0.8344472174176736
  0.7701729941550791  0.7720777706935344  0.4982679199733976
  0.2256450734145435  0.0005422405729761  0.8316254102989897
  0.7275369437581831 -0.0063702493962638  0.3350461009214734
  0.0488412119006690  0.3518789647649088  0.2890401389754074
  0.0482421584660179  0.3443141085393948  0.7903984898538557
  0.0451452291518065  0.8490603836436695  0.2888277953474390
  0.0598480181474829  0.8628458826784342  0.7841880792842680
  0.5464918376061000  0.3470111193753709  0.2914442737341936
  0.5486234178031558  0.3506801720610618  0.7891701143821567
  0.5618362832569289  0.8579204573951538  0.2861497094965839
  0.5463533873431007  0.8463382549075683  0.7889974086763246
  0.1465674988555142  0.1908460860391667  0.1210481783784234
  0.1549396318383707  0.1972420221157545  0.6220560467875499
  0.1509392379302862  0.6985968695338778  0.1198058443689073
  0.1439794354929625  0.6998475388964257  0.6171277559127685
  0.6530487093666396  0.1989644433519419  0.1240720970741781
  0.6462179765996138  0.1899178059432602  0.6224220282919879
  0.6504047835473892  0.6981231276413463  0.1214222855764517
  0.6518701813913736  0.7064430519721882  0.6104442719726084
  0.3043207621276206  0.4592307245875408  0.4564205296619183
  0.3026349860654607  0.4487728277796536  0.9542139113937904
  0.2978929735683578  0.9595907912670592  0.4572957993767798
  0.2911601997617508  0.9479418114853723  0.9441879257410053
  0.8034653456844317  0.4432340890705532  0.4542213713736321
  0.8036427824689900  0.4563138465560436  0.9572529042811013
  0.7880912731878112  0.9312706477635212  0.4444664152077159
  0.7996816691750314  0.9567160865594639  0.9589854605593252
  0.3467552859458971  0.0454238184212782  0.2099748210433418
  0.3453143546570625  0.0507909388179234  0.7203204523315054
  0.3510027672444718  0.5521328084460934  0.2111254124653565
  0.3507439400582676  0.5454750216290312  0.7090239233608074
  0.8490597594298673  0.0483147825778164  0.2246178544802108
  0.8472985283961841  0.0426544306178129  0.7119833417006548
  0.8474168077169213  0.5462941323526289  0.2123220542240815
  0.8510058996423997  0.5526375925892452  0.7128568545086189
  0.2000639391616864  0.1590197720262550  0.3748954593720760
  0.2027678405408614  0.1420545121517015  0.8785122922321568
  0.2016844802502246  0.6591464715160759  0.3744572708234936
  0.1994860834562166  0.6492004481006802  0.8760238422265126
  0.7029450392646818  0.1331874504089258  0.3831479223106141
  0.6978346021185559  0.1540658232665049  0.8773825258084429
  0.7046202384211236  0.6481259449552839  0.3896395614474155
  0.7009472169607448  0.6568738699689517  0.8757082962298434
  0.4530692868110041  0.3010754534682863  0.0454786890251070
  0.4551595579521155  0.3024988769034086  0.5451142219158159
  0.4540154482465548  0.8099843499975605  0.0447109869065900
  0.4506681973560098  0.8074079775025405  0.5456303213287258
  0.9519780956623650  0.2979362307577430  0.0465509374904306
  0.9531531464458607  0.2956788732648931  0.5459034273882302
  0.9534073099816099  0.8025523049904584  0.0439921318995484
  0.9364978806344133  0.8033149018532550  0.5468642342449029
