Ge Si O 
 1.0000000000000000
     9.9984942598288242    0.0085826897728298    0.0093379452762995
    -4.9918117573182545    8.6121418424512779    0.0028383373078865
     0.0102575863130259    0.0095579459446138   11.2504581989511756
 Ge  Si  O  
  21   3  48
Direct
 -0.0011187952534586  0.2251436864767810  0.1720184230736092
  0.0111678717596848  0.2313621409963968  0.6707927669031710
 -0.0003202556648692  0.7227982163727033  0.1645957029270011
 -0.0122477025685632  0.7225168595207166  0.6622749727355142
  0.4965160039575737  0.2264535342608080  0.1650935995377467
  0.4995079355295108  0.2212005086354447  0.6651194684342806
  0.5062865557133420  0.7303922469015939  0.1680462363874463
  0.4994067072063580  0.7290909791376811  0.6670988894385004
  0.2706204548716901  0.2735913687908951 -0.0021277208275440
  0.2804722024128908  0.2792392903976108  0.4989381717002680
  0.2765498957496205  0.7713645436566064 -0.0013169149033982
  0.2708227867887728  0.7795377146550898  0.4999123111537293
  0.7750386375757374  0.2778417587964524  0.0025448621905555
  0.7783366825563853  0.2677360094865264  0.5014148456081716
  0.7763117079150872  0.7748559408855210 -0.0009930522757039
  0.2210566424657137  0.0024952057255074  0.3307212415725376
  0.2202642513915508 -0.0047226772294044  0.8303825731827719
  0.2287409645393298  0.5052836520966927  0.3344775394086950
  0.7302357188600338  0.0049236610799477  0.8351311837114321
  0.7242981974745988  0.4962161161012932  0.3352128203710633
  0.7194825647736113  0.4969305350647302  0.8335207948119185
  0.7654907941675261  0.7686778741334748  0.4978696537004572
  0.2326134424678446  0.5026454100915034  0.8333852649490118
  0.7294514696407639 -0.0055344460367930  0.3361682027825559
  0.0492120014942196  0.3534252763595836  0.2915667349989945
  0.0671877399904953  0.3617537358701308  0.7889272990260444
  0.0440905907785007  0.8470471866877061  0.2868140499542143
  0.0397378341389280  0.8457386883550062  0.7854738628688536
  0.5438499370494442  0.3470063891262078  0.2897557739642322
  0.5418241689191177  0.3417888268509693  0.7896860887637333
  0.5636575608108954  0.8587445283966785  0.2874992286235162
  0.5524374447022000  0.8541429013806288  0.7887659886890007
  0.1496784946345664  0.1991093785988946  0.1223097709503091
  0.1600440267628982  0.2012713957224629  0.6232265627109825
  0.1489069623719574  0.6916738173160537  0.1189261717151435
  0.1387643362525325  0.6956746485880594  0.6162702925682467
  0.6485259974430522  0.1987250524105744  0.1229541452130244
  0.6505960540752208  0.1917592276447019  0.6219251249344848
  0.6549612798224261  0.6983873971047858  0.1229395106625289
  0.6480706796556398  0.7050117318382232  0.6109824232854467
  0.3052465579595839  0.4596515844824635  0.4581855410309890
  0.2969131540318221  0.4500991019377750  0.9465520763844366
  0.2971278918633799  0.9589053031844080  0.4553222924014252
  0.2986975116548664  0.9477913040149365  0.9511388096067040
  0.8044914246622137  0.4448663997675775  0.4520698534939261
  0.8011864179678343  0.4568790633430689  0.9564996014228867
  0.7874261151806170  0.9301723499831783  0.4457190659386108
  0.8023442962485324  0.9557674820737736  0.9593175623315254
  0.3434099060852583  0.0463030779175931  0.2077537479383234
  0.3442562843569494  0.0420069536678382  0.7078694531042468
  0.3536552086823582  0.5511396839331327  0.2128806720645313
  0.3512427708988287  0.5530551203226491  0.7210321621809862
  0.8512079110381898  0.0488273020496947  0.2257645423976620
  0.8583898848034628  0.0527561185132267  0.7157668111863451
  0.8452692331043875  0.5453737019075412  0.2107487036648367
  0.8386785771938984  0.5419168364929859  0.7084246466999273
  0.1981932458201226  0.1577310937095323  0.3754719303022072
  0.1925225282025293  0.1462361099428051  0.8777579063169735
  0.2037887219717142  0.6602617732850896  0.3744375173508514
  0.2096447206095124  0.6447706545855812  0.8777466062500188
  0.7081383480360134  0.1359298276375299  0.3841465049922271
  0.7033216468397042  0.1578521310712000  0.8777917410521133
  0.6985718062832837  0.6451786333492727  0.3889587450200985
  0.6954896324781279  0.6523769229263084  0.8758805615965004
  0.4509922473074996  0.3050571337680567  0.0430524153976750
  0.4587402266425151  0.3035753279281045  0.5425032174478046
  0.4570907768615556  0.8069536689330947  0.0468911561233641
  0.4471612466006419  0.8063529622011228  0.5486592599288139
  0.9506524902157297  0.3001745579931303  0.0493116170397638
  0.9591552392224949  0.3036487433531357  0.5485996905720796
  0.9552441279100248  0.8006591960122340  0.0413457869863577
  0.9312200060323900  0.7964295674613764  0.5440949362715212
