Ge Si O 
 1.0000000000000000
     9.9945124059920012    0.0120246288930840    0.0019833788437501
    -4.9868401507524771    8.6123503076271817    0.0046967797110544
     0.0021806005530125    0.0072382645878764   11.2584998684427369
 Ge  Si  O  
  21   3  48
Direct
 -0.0035867476169767  0.2176923470978936  0.1652157085137456
  0.0000140654716578  0.2188146907355416  0.6651551055157204
  0.0059367913491334  0.7326990298989450  0.1683345220188612
 -0.0003394306794361  0.7320919455689551  0.6670107471422552
  0.5025536045191334  0.2298375884649450  0.1723052557944008
  0.5013932638407166  0.2262252119396457  0.6712005027822630
  0.4951226655624861  0.7233173897349046  0.1639906593477732
  0.4986225455465430  0.7278185883625420  0.6620984488292063
  0.2753688503980107  0.2698123148498328 -0.0020275709989492
  0.2775164062097997  0.2716347107898929  0.4977951017584143
  0.2731943720355749  0.7737374029658955 -0.0056870225743998
  0.2707057944469768  0.7746721472155367  0.4942661198210348
  0.7728261011839156  0.2750016324687187  0.0027040146592224
  0.7735697161448953  0.2711135867072087  0.5027956224293554
  0.7753016765767814  0.7794047241695513  0.0030919969162254
  0.2221731985367300  0.4948697212224378  0.3307582381902853
  0.2268041530848904  0.4966361911037269  0.8297339600783122
  0.7206431498994900 -0.0064350167816159  0.3350211340207587
  0.7216850058496102  0.0007509179600822  0.8337808631229807
  0.7310500072121042  0.5060983259622733  0.3390605769123429
  0.7273871425669699  0.5043032977589147  0.8368975066984228
  0.7727001922488494  0.7763707200111403  0.5027985540825852
  0.2299292268437848  0.0033053959981232  0.3320586882145398
  0.2284010857768933  0.0008068820869121  0.8316325435301102
  0.0441382647379003  0.3390913861086651  0.2892133785706469
  0.0485022339541335  0.3416581053552225  0.7880622771528765
  0.0654150486328652  0.8625874295943926  0.2868904318918944
  0.0626488622583685  0.8621033271262524  0.7857559491627331
  0.5512674085061484  0.3585958916386545  0.2915407815101825
  0.5485321988082585  0.3538098678415910  0.7909593578893415
  0.5407662511053509  0.8442847566623005  0.2882069412559407
  0.5440226374603675  0.8479112925213861  0.7869122482459284
  0.1470084143926819  0.1904593634229168  0.1174171575650063
  0.1505701724554020  0.1912387778104340  0.6180956688311094
  0.1526849656477578  0.7008729605453647  0.1183852164998874
  0.1460924095267644  0.7010915438727746  0.6156720735980790
  0.6519819444293389  0.1990014539461218  0.1269329800962197
  0.6515579352297736  0.1960403843300262  0.6266016742100452
  0.6486143315010723  0.6965699959882687  0.1231150596615184
  0.6506607092707251  0.7050575774790070  0.6122998975997940
  0.3039130501821821  0.4504306906255441  0.4512517669212295
  0.3054190620638966  0.4496862442417214  0.9506788267673199
  0.2936701602237158  0.9507198974122477  0.4455881294715411
  0.2939268323201079  0.9483770131170053  0.9442996090415696
  0.8036121779045435  0.4521906349575157  0.4598333176219712
  0.8003992795666012  0.4559661333796665  0.9609041888271590
  0.7935080026998234  0.9402239537221643  0.4561067485511434
  0.7980099218401913  0.9574471293965817  0.9586080624470553
  0.3502187751634419  0.0538834730902360  0.2213497128118609
  0.3477817173352694  0.0508673152805801  0.7201417344660029
  0.3421304741155498  0.5427545123849685  0.2059044435843350
  0.3483751644833897  0.5463080727414714  0.7057058644393396
  0.8446458491258527  0.0390686377252824  0.2126919865253511
  0.8453555171211864  0.0423558750458076  0.7119380062142461
  0.8560123546413823  0.5551954449699228  0.2178326868121605
  0.8537670509692011  0.5522102066472029  0.7167530303760954
  0.2078866641527112  0.1460648907228247  0.3763339114288165
  0.2066752154671345  0.1434148247099131  0.8769973151528782
  0.1937608232468843  0.6465322287829186  0.3745995994701454
  0.1960005962586915  0.6464752913221866  0.8742919523476341
  0.6944357603669290  0.1460516993487583  0.3813039573524697
  0.6945192936454543  0.1533816286653696  0.8789414451913604
  0.7111270824870892  0.6599575713310030  0.3892891083787035
  0.7037537181528302  0.6599540536495589  0.8778351183929652
  0.4536795496895215  0.3005618649344842  0.0474600203575212
  0.4553617940028991  0.3003101885947977  0.5465976556929114
  0.4525256628183897  0.8033468168788744  0.0409107264616055
  0.4500052362865978  0.8065930409131531  0.5418790205592436
  0.9512968207703859  0.2994932099950184  0.0450935329634358
  0.9529541872859852  0.2969318507464856  0.5438832652572724
  0.9544414722418966  0.8086204312825718  0.0480705719843573
  0.9373941084439668  0.8036713128470264  0.5508723135824271
