Ge Si O 
 1.0000000000000000
     9.9963245096313802    0.0131689081161843    0.0054365270612637
    -4.9867557588307729    8.6215562029352419    0.0000965087000321
     0.0059853662625507    0.0035653079457313   11.2489103140380458
 Ge  Si  O  
  21   3  48
Direct
  0.0064146639428903  0.2286097754468023  0.1700022412242323
  0.0005379347643712  0.2270463455446922  0.6674039030496435
 -0.0040686259625885  0.7237945540400984  0.1679904410370522
 -0.0049653353589299  0.7231106195225520  0.6646379414097254
  0.5082574026809779  0.2341783423729909  0.1696766819443190
  0.4975324645071266  0.2259061477350305  0.6661763897086913
  0.4938787181761970  0.7218964591309128  0.1669857207394709
  0.5024842579764703  0.7252545066894476  0.6629251723475712
  0.2797789854883520  0.2781122201270237  0.0003915718329203
  0.2753110615074889  0.2799578129642813  0.4982840673165770
  0.2699198710899009  0.7735157143357040 -0.0004801143003872
  0.2724624888337043  0.7712540434436251  0.4970701618337660
  0.7791162094829429  0.2765041063821524  0.0017777135442279
  0.7738562030034364  0.2739181175675639  0.4997996387634638
  0.7695622703532780  0.7721415406288690  0.0005460497899433
  0.2274542493103424  0.0035285576760461  0.3317998859967363
  0.2225505253763269  0.0001364009218633  0.8318734959622751
  0.2285397906851152  0.5020449118280966  0.8321681741241183
  0.7269492167661843 -0.0061883887558968  0.3348126247504333
  0.7252806373015096  0.0003584333339454  0.8335072363017039
  0.7235499276310247  0.4979614419822490  0.8345576470145660
  0.7713251648309304  0.7655437812157480  0.4983209160389455
  0.2256837976952856  0.5007315872887714  0.3330809500829908
  0.7280585889349618  0.5013154624760100  0.3366277262735558
  0.0609846937540197  0.3577032382997016  0.2894665610945805
  0.0483224146851981  0.3499236249530183  0.7903153268691424
  0.0492521420504954  0.8527829912317304  0.2869245831705428
  0.0436652106361993  0.8490497330622078  0.7860928702507537
  0.5624995625016175  0.3619304714538499  0.2902194218849218
  0.5439759124046416  0.3460401620266614  0.7910417118997348
  0.5468605879109653  0.8482660410181915  0.2875650216913703
  0.5489723734363603  0.8463706918752893  0.7870600645671915
  0.1566077289361936  0.1999887463715047  0.1228845980952810
  0.1529544831432743  0.2020549910969614  0.6211324232318394
  0.1442026453076392  0.6925614339008428  0.1205062287358996
  0.1438568125841590  0.6932774662555630  0.6164959181215433
  0.6573024080270042  0.2024335034089440  0.1252465664985127
  0.6503483963476486  0.2001951657180126  0.6222964699735127
  0.6444745653566386  0.6928809853700642  0.1221174257031022
  0.6509882874226735  0.6986800889279138  0.6096074176237108
  0.2953299745534470  0.4536631560328521  0.4464850083509300
  0.3052910999063309  0.4576083305459355  0.9561681377342097
  0.2991405032621596  0.9507462684720901  0.4537867880906401
  0.2966322685036495  0.9532125447942370  0.9560093454041146
  0.7965567377367655  0.4473109319991964  0.4460537061160919
  0.8032583155643268  0.4554096325264667  0.9576424290101047
  0.7950728040121221  0.9300261596722937  0.4518751713929771
  0.7987550115293967  0.9529422221130590  0.9576327972607352
  0.3564627238927284  0.0544279915581680  0.2130683128339872
  0.3458172065010859  0.0454056273157122  0.7093555902166555
  0.3418070757347421  0.5482878795196158  0.2194208051392298
  0.3505929066628480  0.5457325564666844  0.7085688363617518
  0.8568117410090251  0.0487764283869902  0.2160053806832389
  0.8490679621533305  0.0472788001067186  0.7113161496605934
  0.8437568342745000  0.5522742094566746  0.2227401283909913
  0.8454379553600815  0.5430857285884598  0.7111451591217015
  0.1997494114452502  0.1548912687001802  0.3767697827675405
  0.2010078250738756  0.1557319883526249  0.8771992990883148
  0.2028824146824159  0.6435630077766297  0.3765299188428563
  0.1998026988527901  0.6542796181581638  0.8741609432666393
  0.6985950427600465  0.1438200830279176  0.3817122487608983
  0.6997506275046778  0.1534365978729646  0.8790476854004261
  0.7092942547791968  0.6428560496771016  0.3885205576334173
  0.6963372251742103  0.6514434330883715  0.8760159155167947
  0.4597061692247347  0.3091639216085484  0.0467229320878586
  0.4534449583975834  0.3069360974040592  0.5446356248172370
  0.4478951095736489  0.7996406917662084  0.0449851910826558
  0.4520304442909485  0.8037252407885124  0.5441147907404370
  0.9577453619987701  0.3041507448394684  0.0473945421074664
  0.9530492056693501  0.3037350439607394  0.5452887118252727
  0.9474894968671449  0.7978204007708217  0.0450008702017160
  0.9366899395252586  0.7938455157809688  0.5457183938934939
