Ge Si O 
 1.0000000000000000
     9.9893708574738138    0.0150369159338973    0.0028188204567274
    -4.9816611282069827    8.6101018625040897    0.0066866372995235
     0.0031222372386051    0.0102995995568623   11.2621155975697373
 Ge  Si  O  
  21   3  48
Direct
 -0.0026457013693640  0.2233427712944048  0.1666690590798156
  0.0007479251543896  0.2251249758584994  0.6666114840116750
  0.0013446952818308  0.7275921226331413  0.1708545718976517
 -0.0053051836369111  0.7272667500952750  0.6694188336242979
  0.5081998486938988  0.2355931925686417  0.1701027646885470
  0.5064553226817650  0.2306417397069159  0.6690189095400927
  0.4945091931387834  0.7181625642679100  0.1624481329381906
  0.4974552315757465  0.7215696809276670  0.6602385200949478
  0.2779282372304223  0.2817802381112999  0.0031287304192427
  0.2798924797148741  0.2834354617086737  0.5030826911859798
  0.2716645657972041  0.7751770917836222  0.0002474692661401
  0.2689596324076605  0.7761732274351724  0.5001627718227163
  0.7743012381939762  0.2729672868125507 -0.0035276817571922
  0.7754266354985254  0.2700150439010757  0.4968630219607963
  0.7731296426836028  0.7673312754198111 -0.0018097749907594
  0.2288737485551534  0.0092396014007212  0.3342504768857498
  0.2270016939100033  0.0059185907890618  0.8343295278600722
  0.2201797235961262  0.5004325850402640  0.3331062716224759
  0.2241894087844570  0.5021854849712674  0.8320411688171133
  0.7225295335624418 -0.0118807947891861  0.3324502425491364
  0.7239307833572333 -0.0052470292558080  0.8311572939065052
  0.7699812658992881  0.7641432906275639  0.4979320848780415
  0.7321843038526840  0.5012983041976018  0.3366672570758298
  0.7286199948399013  0.4988048914351333  0.8341372333322126
  0.0409970032095745  0.3467598134424020  0.2893114364076133
  0.0446665140970791  0.3491154464075861  0.7886471773747820
  0.0506583815079628  0.8590840322457508  0.2877551312148363
  0.0470498482338127  0.8585616335210936  0.7869824071645664
  0.5662830686459562  0.3627648861205375  0.2906586949535443
  0.5638855092486795  0.3570571820798991  0.7898934669876991
  0.5433081097131521  0.8381592772148347  0.2870326871413224
  0.5477522131891258  0.8397353071505254  0.7860658584386896
  0.1510124387998813  0.1981946058000676  0.1229174204589582
  0.1541644971062025  0.1994133158529941  0.6235461048764240
  0.1497186843178061  0.6957921060392623  0.1236722909011436
  0.1430195387499388  0.6966522138287623  0.6210306891349491
  0.6558574230661834  0.2040911095725427  0.1218797435389907
  0.6552461188220583  0.2005257334749553  0.6213852528014456
  0.6454846334195578  0.6893636281326433  0.1182307613290958
  0.6458625706765494  0.6955446084800052  0.6064193711966352
  0.3013644087030060  0.4609381844473067  0.4571727871264217
  0.3019315889634873  0.4600633886267901  0.9566501863171404
  0.2957175986792636  0.9571362158558083  0.4598300792051439
  0.2968917318961912  0.9552993675552532  0.9590935178268081
  0.7997068299509821  0.4453536513703517  0.4455427735713302
  0.7969410460217040  0.4485888005677644  0.9462833043811441
  0.7948303727819876  0.9286108250299500  0.4495413717313415
  0.8016398298695955  0.9468394378469883  0.9520945381437290
  0.3583915656673054  0.0558542609586853  0.2164010586431779
  0.3552935728650671  0.0516159220401511  0.7154517616949954
  0.3403646861869885  0.5406487872208540  0.2088856377773461
  0.3453039098324120  0.5434103485190612  0.7082149745898538
  0.8472731054967271  0.0417175161814774  0.2102304827004030
  0.8475217300199502  0.0452147872012044  0.7086401245643223
  0.8491430612648316  0.5542318007972719  0.2236184684885847
  0.8465751511418433  0.5508084071834977  0.7218552042511354
  0.2069510463182826  0.1651424774520058  0.3773883555143497
  0.2062087036650939  0.1624046042814732  0.8779883176083619
  0.1941214793924816  0.6545318440248499  0.3761395444891123
  0.1968759567659708  0.6553377935545791  0.8753925443926902
  0.6942549792969082  0.1382034037289890  0.3802788390114747
  0.6930555780914782  0.1439752738070788  0.8778111060817338
  0.7123868530787149  0.6421074844428147  0.3882568367876285
  0.7040106583682516  0.6403867314147011  0.8776490329927955
  0.4572773191123806  0.3124156037682907  0.0499919127500580
  0.4582921133936007  0.3106332690992843  0.5491010582767557
  0.4512582675992647  0.8018189049632732  0.0425814612337255
  0.4485542123674348  0.8050525501493797  0.5438724120340870
  0.9527980597952954  0.3001804517411507  0.0425162314957479
  0.9551634887416710  0.2998266513999838  0.5418830339356576
  0.9514296413452353  0.7967662172333314  0.0457003694204682
  0.9339506811181140  0.7930017912292217  0.5489331183314471
