Ge Si O 
 1.0000000000000000
     9.9962681525209085    0.0140126910844802   -0.0007913781278308
    -4.9860011283946744    8.6065627337790325    0.0087868888579478
    -0.0008328816424066    0.0106697788182588   11.2547658673398363
 Ge  Si  O  
  21   3  48
Direct
 -0.0030506043838566  0.2258922855925109  0.1702972547683713
  0.0047492817865961  0.2237215777231557  0.6692360796417396
  0.0018320043993881  0.7244674411805319  0.1671516243795751
 -0.0091520481278494  0.7283869747175589  0.6666657391531119
  0.4982099539999776  0.2254530967547868  0.1668278111117026
  0.5065769764534497  0.2284534396636188  0.6669836180892892
  0.5043842411826340  0.7281561106265192  0.1655391135456600
  0.4972568820368848  0.7240643502880973  0.6622546289904565
  0.2727958294555957  0.2786490156007814  0.0027481659292070
  0.2802086415043990  0.2808837174475663  0.5017060306805163
  0.2769993994792475  0.7785920220235220  0.0003446596516649
  0.2682551481292513  0.7786475303895347  0.5015280886332718
  0.7717789745811104  0.2727657418426740 -0.0025751493893291
  0.7781171375452763  0.2654009008093988  0.4988085893746778
  0.7751787503162519  0.7672147791677320 -0.0023890509448017
  0.2217728620814254  0.0042409404702319  0.3329625490337342
  0.2253958232718405  0.0052239040649922  0.8330539566934655
  0.2264370090406794  0.5053461770953628  0.3344273273649879
  0.2257590600113286  0.5031566207204936  0.8330913071807320
  0.7255995614723680 -0.0044517169847492  0.8326845811438567
  0.7272250908876070  0.4963031215391014  0.3351338043617992
  0.7677966310706522  0.7693908137435379  0.4961834461452319
  0.7286163614920564 -0.0068659317560560  0.3339633022905825
  0.7270234221455629  0.4980947371662278  0.8328650213338258
  0.0467871824954326  0.3549779713874466  0.2892721476573248
  0.0466294989439241  0.3491199889980803  0.7901821697539255
  0.0442825252053664  0.8498006196610923  0.2882300472706822
  0.0451181714283213  0.8586506382079784  0.7852025665031395
  0.5470209774764296  0.3456287925224799  0.2916745100838087
  0.5632682239271972  0.3554997053768089  0.7876821679463154
  0.5637665419895516  0.8560749773616456  0.2853544324164607
  0.5483959975771471  0.8412441575474298  0.7886146236929071
  0.1475937167236011  0.1975232905606379  0.1239287300883650
  0.1583146940477664  0.1990987946786009  0.6248856397821448
  0.1536394835713071  0.6970230174693455  0.1226273414746139
  0.1386405259783923  0.6965020830838295  0.6196666469686350
  0.6498933041362247  0.1995756559092823  0.1208139830884384
  0.6526635593520655  0.1933109032090821  0.6204486333830749
  0.6503007663691621  0.6923617925354834  0.1194398053413821
  0.6478545086772850  0.7033095183520557  0.6071842078702115
  0.3033410038131377  0.4599251252671773  0.4581303918928364
  0.3000705146655185  0.4589296466695471  0.9586765932738879
  0.2935962318505578  0.9584412773541079  0.4591371438932255
  0.2987695143478636  0.9568719140136965  0.9571514527571909
  0.8065352416802178  0.4448390414368220  0.4528038389170378
  0.7962055002966812  0.4481497731659124  0.9446735516632692
  0.7892248678053387  0.9306305315245990  0.4432931390937785
  0.8019457380195137  0.9472498189863622  0.9544950067837152
  0.3460129773819053  0.0458396239862516  0.2116488635895230
  0.3533061978474694  0.0509079733087536  0.7139071946643671
  0.3518668712324228  0.5508204588436736  0.2135326793595578
  0.3472918849998975  0.5442571916057630  0.7096619320862598
  0.8494084152199677  0.0491378817574975  0.2231504106653056
  0.8503609700592615  0.0440303829533858  0.7109079848972167
  0.8476697307320008  0.5453652624294248  0.2105594480811240
  0.8438968939337773  0.5518368044454999  0.7199313457329130
  0.2006609563210165  0.1605915224294130  0.3771554537518495
  0.2004936162524847  0.1591892731996574  0.8776326151761884
  0.1997198413163396  0.6590460752494177  0.3762777085120473
  0.2019809625361118  0.6584836034394981  0.8754530707384760
  0.7049315314859768  0.1334874983247638  0.3817895775733928
  0.6948680684027964  0.1452392217097173  0.8774411142117484
  0.7032149696892587  0.6469458785071676  0.3866672590359163
  0.7020391586680393  0.6391561666030608  0.8776987701552937
  0.4517077231388817  0.3059569621607056  0.0467670994923803
  0.4596978200296565  0.3086784952011212  0.5461899319489882
  0.4569114180765425  0.8081257592421642  0.0451914064776363
  0.4467784441106044  0.8075691146838246  0.5470269787330234
  0.9487258569186469  0.2986473679470688  0.0457361844705180
  0.9578834641038427  0.2965133279514093  0.5443100567213817
  0.9550068888580439  0.7980039627082529  0.0425925417985075
  0.9319406584738186  0.7962435061445968  0.5457091013668022
