Ge Si O 
 1.0000000000000000
     9.9993376166207177    0.0122196734757715    0.0033814115478202
    -4.9890834807744957    8.6120631572947932    0.0048800597688792
     0.0037363637973323    0.0083552095527407   11.2533977958422415
 Ge  Si  O  
  21   3  48
Direct
 -0.0004545900381050  0.2218565301065398  0.1668556019637798
  0.0060673815021506  0.2268557976016189  0.6678281883045544
 -0.0003682683129517  0.7244596935421050  0.1650521161200933
 -0.0034671549221928  0.7278843847514472  0.6650941117487050
  0.5019590733005774  0.2303771383918942  0.1680020184208216
  0.4989285850475782  0.2245707166892549  0.6699008726763517
  0.4977124320173128  0.7251790512325230  0.1655020666600523
  0.4993507658287113  0.7272917222302921  0.6667103061909881
  0.2742050649044757  0.2689560457963803 -0.0047415927757347
  0.2787325101099741  0.2772725953157815  0.4982901471086457
  0.2720800926877436  0.7676047447831430 -0.0059057523597996
  0.2720267026010565  0.7755020664415800  0.4972925065682142
  0.7765475806656873  0.2797355714024327  0.0029088958689010
  0.7745127927165655  0.2722587585821640  0.5040384190633407
  0.7746775499327627  0.7788383201261959  0.0017224966432730
  0.2257959966848472  0.0026072452036650  0.3306046544097149
  0.2247683603919337  0.4996963181037005  0.3320071953156185
  0.7238613050397368 -0.0052508949476087  0.3361132310542064
  0.7259394997973870  0.0051826315644350  0.8350364777098717
  0.7264694046850948  0.5021142697354189  0.3379415583045319
  0.7238152645519585  0.5032002453118106  0.8358703567863260
  0.7692369041942132  0.7720331701858512  0.5027545955249816
  0.2260238645555496 -0.0042837866819467  0.8303718980217336
  0.2310202191346909  0.4968811580490258  0.8308167479197091
  0.0465330882110592  0.3445924784520611  0.2900969228508780
  0.0659024101393760  0.3558046338475915  0.7867754774969669
  0.0481964299343097  0.8482957959282053  0.2875582064037677
  0.0602426236149897  0.8578387729678614  0.7838257490028927
  0.5464156613773222  0.3526899017090903  0.2914042578773036
  0.5453865505169985  0.3514440575367127  0.7904041021543405
  0.5437345191113189  0.8466382764786453  0.2891447247963970
  0.5487324453903093  0.8535615364197808  0.7876822318734354
  0.1493925479992823  0.1942972102418274  0.1172885739327871
  0.1544223031318427  0.1967294704642250  0.6197991428038521
  0.1471811007676729  0.6930702906061522  0.1159903744622146
  0.1429115534569029  0.6958462255043342  0.6156505927954882
  0.6537916223257955  0.2021804221817954  0.1256235991658234
  0.6501250635793550  0.1955102684755820  0.6263420564368540
  0.6505728524545726  0.6982056585290142  0.1235808759498824
  0.6495141477363022  0.7028102802593948  0.6142425570352270
  0.3045290667765397  0.4574864889206637  0.4554780599518305
  0.2980679362725156  0.4432608134514206  0.9414575669696110
  0.2997785563724105  0.9564003846589011  0.4551851840575880
  0.2916637626208349  0.9399643081365299  0.9405874608287670
  0.8028816120857553  0.4518525896941742  0.4583846627934922
  0.8012895715284566  0.4591327738824627  0.9596001648603524
  0.7925740194903541  0.9372484439988040  0.4571675808697081
  0.7992968636461693  0.9584257315180184  0.9598849685273436
  0.3493449559512110  0.0486790022531006  0.2083839238887050
  0.3458060407170077  0.0490548458450387  0.7189293500028717
  0.3448166504136094  0.5443411860817311  0.2073271574575575
  0.3496427879837684  0.5510104510878632  0.7184221613884431
  0.8495944581074493  0.0422984051662792  0.2148227845410777
  0.8534874772965259  0.0502820274972567  0.7157318332719097
  0.8470845530653767  0.5475305598102869  0.2138206422189982
  0.8488373997591295  0.5491724681043888  0.7148976109824804
  0.2017422717995767  0.1573108868017059  0.3737561458277237
  0.2032079505122831  0.1365208121981153  0.8783361092542626
  0.1990480359382538  0.6540156897681570  0.3732669736331722
  0.2044992978746762  0.6360324663178997  0.8767927956347433
  0.6981000650041623  0.1471355485232880  0.3824970279784169
  0.7000979026303475  0.1588204103903436  0.8786962283435427
  0.7045233241893507  0.6544250229126218  0.3898084876426938
  0.6995922368238041  0.6587621842037135  0.8768224004307563
  0.4547922748950115  0.3052991572508066  0.0444384372319684
  0.4555196093864225  0.3012523558921667  0.5451446737626314
  0.4525133725765960  0.8036174507681219  0.0431356684751927
  0.4489932515769610  0.8027460481851505  0.5455971076722772
  0.9537853471476059  0.3024602639032938  0.0461392849190130
  0.9546294973698861  0.3020896574352406  0.5471878079331718
  0.9529542204550501  0.8036871922683065  0.0441282188134436
  0.9348093729071544  0.7993455999509294  0.5486949575485867
