Ge Si O 
 1.0000000000000000
     9.9728710369741496    0.0022237193681927   -0.0018303231625369
    -4.9845099979149534    8.6378096095936527    0.0026194724605716
    -0.0020041470260031    0.0021502935096067   11.2536695573569219
 Ge  Si  O  
  21   3  48
Direct
  0.0042746615483059  0.2230293191627252  0.1653366517350675
  0.0013166735308918  0.2229129926301169  0.6653982024543778
 -0.0073084436060059  0.7251231200969727  0.1663986413785344
  0.0018169484742187  0.7309747985641875  0.6691100344119546
  0.5025273338021859  0.2235146296070226  0.1680838029789307
  0.5007725167543979  0.2265591118405759  0.6711912578403757
  0.4993020428165156  0.7300460950997917  0.1623896322435409
  0.2800689615564516  0.2733471128014890 -0.0034262405904038
  0.2786661166502057  0.2757121615948594  0.4980814861817839
  0.2691858290263218  0.7761930488198288 -0.0032369957679199
  0.2747428992062834  0.7726667659235900  0.5011366875163916
  0.7757763444141305  0.2693660658482100  0.0002592991530125
  0.7730886547215979  0.2742388525215968  0.5022065376132160
  0.7692482573332005  0.7760042558905897  0.5030786083815547
  0.2258657184930413 -0.0018913030133385  0.3329670867814674
  0.2284546373452055  0.5009967322958336  0.3305014913532101
  0.2289670361618625  0.5019698343698066  0.8301303225968131
  0.7249616728784527  0.0026283979608204  0.3325184503244282
  0.7234773286834194 -0.0071820515581932  0.8320910592922243
  0.7219193419299736  0.4992079723218850  0.3370741370062734
  0.7269507366677612  0.5021012292102156  0.8392964749980304
  0.4981377133096845  0.7263081446737371  0.6657517633805782
  0.7706230770453329  0.7733958634315048  0.0016854310997720
  0.2275912849499076  0.0025443342580852  0.8323493547075447
  0.0494439565539587  0.3484338243495439  0.2863729933028859
  0.0504411330662649  0.3491878177815462  0.7859439942148466
  0.0447101423144232  0.8485971656837884  0.2892841043736485
  0.0627632197023205  0.8617552252235132  0.7871310415744072
  0.5440633702053461  0.3454998220975666  0.2912289998444220
  0.5478100306720759  0.3536665754925605  0.7914012532194750
  0.5462652392625145  0.8500075034052365  0.2871421189985758
  0.5486079376200904  0.8438063121010956  0.7785315260527939
  0.1563471895919588  0.1965362799554597  0.1193738736723692
  0.1556148002686137  0.1998535828256575  0.6207289403764551
  0.1441590822937605  0.6995936062684003  0.1180202344101249
  0.1464958332639635  0.6950407718950700  0.6204146157031951
  0.6552175365989134  0.1961114932237678  0.1249050418924156
  0.6518712723007789  0.1973449220500278  0.6263753626164666
  0.6513995236464268  0.7068938853683567  0.1131833800606269
  0.6400176196781417  0.7024097008736319  0.6221977911174882
  0.3070424466037821  0.4549755915519239  0.4522197498148854
  0.3083835908158291  0.4521956444529505  0.9493650502943533
  0.3022192351937795  0.9524068367528509  0.4568606853430163
  0.2914461791501168  0.9507900296046758  0.9464049179106993
  0.8002971015892292  0.4544330751925581  0.4597153146136712
  0.8050082464375551  0.4496692546046611  0.9572847175020622
  0.7982512847620855  0.9552962097411160  0.4568329506184776
  0.7924777566582352  0.9365237331657112  0.9537342504767400
  0.3492009030333023  0.0431374702246323  0.2102708886168470
  0.3480709927242750  0.0519195315016638  0.7215362677034761
  0.3493460134791676  0.5491419136262192  0.2061404891657115
  0.3562618174265904  0.5609631373278949  0.7096375710130628
  0.8505096182790084  0.0459970772520171  0.2117731619021758
  0.8529650660168733  0.0435993366441543  0.7132351441214340
  0.8439390898239384  0.5456438181252339  0.2137264264076080
  0.8498002563720854  0.5542142343704997  0.7165577995072667
  0.2005978223147923  0.1518436599997413  0.3760672590273350
  0.2057555720109527  0.1453310338600498  0.8767433697486692
  0.2019657038413017  0.6530233592197637  0.3763662737549628
  0.1953022928114943  0.6489026146550807  0.8766964416981412
  0.6957170696043811  0.1533381898300101  0.3781630358809831
  0.6946356045971767  0.1428895176729996  0.8796450010100204
  0.6940879027150306  0.6513057734089945  0.3808045169582941
  0.7048858829474022  0.6540003915602692  0.8902986412092831
  0.4587782865199381  0.3012553938670393  0.0443018069021076
  0.4559916554235567  0.3003754799784106  0.5456270080963664
  0.4498753434225961  0.8081694440539949  0.0421366084173893
  0.4489763016910688  0.7950924504029558  0.5531530354211913
  0.9558216659055878  0.2953584879431922  0.0409798317777596
  0.9523124303584722  0.2987015510403223  0.5434583181324142
  0.9355969252750950  0.7986784102036001  0.0482479604342061
  0.9488247114613521  0.8063213752162377  0.5494070580176860
