Ge Si O 
 1.0000000000000000
     9.9712052181225772   -0.0005079093418347   -0.0016047068471783
    -4.9860424716761784    8.6360786712826645   -0.0000000080202194
    -0.0017625055760985   -0.0010176088066290   11.2556039255935243
 Ge  Si  O  
  21   3  48
Direct
  0.0105016379125953  0.2310435443409718  0.1685811125607881
  0.0046181586970452  0.2272785966795174  0.6674107191342182
 -0.0105016266278427  0.7205419102650199  0.1647522112518944
 -0.0046181631000717  0.7226604422710785  0.6659226086666382
  0.5000000033236446  0.2220129378948015  0.1666666605787957
  0.5000000036249617  0.2267752727071733  0.6666666640878320
  0.4999999994336397  0.7299033138244200  0.1666666617962529
  0.2814551305942270  0.2794735016670726 -0.0027204452684072
  0.2775920406163035  0.2752403233056115  0.4952288878630687
  0.2705489437309579  0.7776361070214226 -0.0004745341464485
  0.2730640473182708  0.7665861030248149  0.5005026002892934
  0.7767876477510052  0.2701497642793157  0.0015585583479437
  0.7769480602911326  0.2790929635548198  0.5024911225618631
  0.7685314577053327  0.7754094455670323  0.5015527943489135
  0.2232123474246554 -0.0066378869730529  0.3317747731336849
  0.2230519488371174  0.0021449125185884  0.8308422174864851
  0.2314685441786692  0.5068779901333145  0.8317805461924345
  0.7294510570023498  0.0070871670866548  0.3338078748166312
  0.7269359517341201 -0.0064779424510827  0.8328307351037643
  0.7185448744169629  0.4980183736003722  0.3360537804054616
  0.7224079646456709  0.4976482824894619  0.8381044475073290
  0.5000000000756861  0.7273391424520619  0.6666666654978652
  0.7671404846286921  0.7688266926779296  0.0016363977002802
  0.2328595134401766  0.5016862073743628  0.3316969365263398
  0.0670637056095405  0.3614792676408419  0.2866189599551747
  0.0527073681620075  0.3541528540292005  0.7875872084450259
  0.0421362397555252  0.8434021140145601  0.2880707269706416
  0.0449782215206378  0.8472746494127111  0.7880316992971564
  0.5408138274661528  0.3432865382058360  0.2905363111397961
  0.5428427367988237  0.3473271084717560  0.7910494688011823
  0.5509515213646065  0.8558007080268717  0.2877559725448838
  0.5517218334658043  0.8458195238403149  0.7786603834426363
  0.1609954549515433  0.2029471801179822  0.1215144514651176
  0.1591510582057591  0.2055103051552000  0.6208349497118522
  0.1414200633837002  0.6950086943442627  0.1178250447964476
  0.1414989847934222  0.6881215842214214  0.6179942637358237
  0.6532287524239868  0.1949001060632823  0.1243258924528511
  0.6533517499670237  0.1999193047368296  0.6247642590983475
  0.6497599545535708  0.7042334030370534  0.1146805731462741
  0.6413642274351522  0.7032176952801626  0.6220907284403937
  0.3011688140367466  0.4494045366679127  0.4424570105167714
  0.3093589357942753  0.4599173587089864  0.9540121523859635
  0.3011334368528683  0.9448038252478990  0.4525880782598100
  0.2978655729818226  0.9571966174012262  0.9556346271182553
  0.8010525307162920  0.4576566246910312  0.4585659147262903
  0.8044040618854380  0.4489153633258541  0.9555947850207639
  0.7994786256599270  0.9563476327203692  0.4582001885535299
  0.7915610306492613  0.9332028014090401  0.9545116172490392
  0.3467712544723406  0.0416713528084355  0.2090074393528659
  0.3466482534803546  0.0465675477863270  0.7085690700222890
  0.3502400452431684  0.5544734505630740  0.2186527638918652
  0.3586357692952152  0.5618534580790903  0.7112426008094053
  0.8585799383884613  0.0535886249245328  0.2155082834677008
  0.8585010128601850  0.0466225899304354  0.7153390745160483
  0.8390045556125570  0.5419517257341310  0.2118188769279873
  0.8408489431949061  0.5463592458143003  0.7124983860092404
  0.1955959359524826  0.1445113040049116  0.3777385469067904
  0.1989474751253849  0.1566041024120197  0.8747674272352669
  0.2084389654874505  0.6416417697903498  0.3788217140369903
  0.2005213798511690  0.6568690128968984  0.8751331528137430
  0.7021344307103899  0.1593310565232536  0.3776987109786475
  0.6988665631665516  0.1436703823844485  0.8807452622153318
  0.6906410661664887  0.6505584309391297  0.3793211855052849
  0.6988311828876205  0.6482357173940775  0.8908763231613489
  0.4591861554536550  0.3024726983497630  0.0427970202340693
  0.4571572626192392  0.3044843645961858  0.5422838586191868
  0.4490484729194646  0.8048491894477300  0.0455773609209685
  0.4482781660458965  0.7940976841387879  0.5546729447343488
  0.9578637471505431  0.3012658693286018  0.0452626005431114
  0.9550217767708340  0.3022964205501211  0.5453016334027165
  0.9329362833353455  0.7944155521655432  0.0467143762231402
  0.9472926277193142  0.8014454873532787  0.5457461237541912
