Ge Si O 
 1.0000000000000000
     9.9935898043276747    0.0127266124064630    0.0038877864426226
    -4.9857709498379537    8.6091712729755514    0.0051018776737393
     0.0042735942654687    0.0089542253930008   11.2553233205139875
 Ge  Si  O  
  21   3  48
Direct
 -0.0060386391905549  0.2204102821797748  0.1652737071003833
  0.0030375386024520  0.2217877984485114  0.6664391192658674
  0.0082205085172427  0.7323984179156945  0.1689759412012556
 -0.0071299045646471  0.7278004068142193  0.6685083979520016
  0.5001747458090375  0.2302305242920550  0.1715879010148409
  0.5088240779077157  0.2307510351543277  0.6696127387482431
  0.4972814403908214  0.7203767383710356  0.1640048266951614
  0.4959699208026685  0.7250325734499692  0.6607287949615958
  0.2752403820506592  0.2796316550613431  0.0011119263904663
  0.2799085468991418  0.2735106995141383  0.4997834687959855
  0.2770485621938464  0.7769211940351090 -0.0020292611946383
  0.2660695512071132  0.7731934418095624  0.4967964596561803
  0.7691266561717615  0.2720472163012537 -0.0010930616674506
  0.7789138432564684  0.2726968142036569  0.5003429645776728
  0.7753605799164652  0.7697155742317482  0.0002843955011417
  0.2281401334797538  0.0053983804622788  0.8330488420703365
  0.2213752398691041  0.4952311885793526  0.3317664020193082
  0.2248213248900073  0.5017429729990922  0.8308609372940191
  0.7208593888257061 -0.0073135042316550  0.3341530280049542
  0.7233478190554229 -0.0041581516672895  0.8325550633387401
  0.7318148111082300  0.5053498770664611  0.3377554195825299
  0.7704528889450516  0.7738946297020941  0.5007870276359879
  0.2289232915822443  0.0037032215649235  0.3333172123429780
  0.7278778053903360  0.4999074462424260  0.8352537752247242
  0.0418231565919562  0.3420099182110101  0.2891510103866441
  0.0466205450733401  0.3467350035891514  0.7880138876264355
  0.0645317020609093  0.8635303514814624  0.2867237485163501
  0.0478453829668308  0.8575124755652670  0.7873639074860511
  0.5516290992248954  0.3573488651093132  0.2920913934800392
  0.5632309024666328  0.3585221448376260  0.7897123127089922
  0.5420679988470023  0.8415119625088479  0.2881163967606162
  0.5457307057159463  0.8429884709060977  0.7866749178262074
  0.1470433202163279  0.1958911908057220  0.1200162123208793
  0.1543089261885980  0.1936571006175017  0.6211825251315358
  0.1555439178684091  0.6996319222199670  0.1215065705743310
  0.1408207654867907  0.6981442782508318  0.6182570784423593
  0.6494128401462549  0.2006418384398153  0.1239177391405999
  0.6580419740660862  0.1996365846462610  0.6245972106140872
  0.6488693946507726  0.6912862260825993  0.1212371915326813
  0.6470620551057468  0.7021303333364426  0.6093697960876920
  0.3028763895410409  0.4507715310009175  0.4524782538595783
  0.3026431387437841  0.4593234898852732  0.9551913158325105
  0.2904242600735378  0.9493469113549423  0.4471047873223033
  0.3010959817796287  0.9568792250971637  0.9572905471700212
  0.8072379206254048  0.4536360427583356  0.4582099263610504
  0.7940609235281315  0.4480924697447846  0.9477602391332355
  0.7939064172250974  0.9391322289453609  0.4549272281162142
  0.8001259055706702  0.9477751843976634  0.9540747992467258
  0.3497518991233968  0.0544446004172508  0.2229249607527332
  0.3555907658850431  0.0513235215122472  0.7133863868494111
  0.3428538368293444  0.5413704654040697  0.2077471583309475
  0.3450249741659456  0.5449620791395532  0.7063487311855043
  0.8436165387412526  0.0400386017554738  0.2109139397486988
  0.8485567523019640  0.0438335553025305  0.7110930441209004
  0.8559995008520169  0.5544524239008584  0.2158085906330809
  0.8460806461053230  0.5519455673913253  0.7230878153119868
  0.2083624416317386  0.1470346222082192  0.3787357993726115
  0.2051853203101425  0.1609473827767555  0.8754976091615323
  0.1917418128271375  0.6460003657380350  0.3763823771661263
  0.1990724471316370  0.6558395123584119  0.8739771046282762
  0.6964937847428919  0.1464639776970205  0.3799051677151963
  0.6910513244141127  0.1441978870878181  0.8791563013782991
  0.7100505967287610  0.6586480094822436  0.3866512254990144
  0.7047826282257166  0.6420389311967666  0.8799476628331744
  0.4521258997474708  0.3053386073299957  0.0489014474661771
  0.4600909287060778  0.3068822791641890  0.5475192385596690
  0.4557218421035465  0.8023976572566298  0.0417550388933207
  0.4461123934594099  0.8061880262977187  0.5431630786707043
  0.9480650533584218  0.2998091669387353  0.0438129901595087
  0.9576451536011994  0.2973911454610245  0.5422627021223251
  0.9561940309985022  0.8044868869378911  0.0465744739501865
  0.9332552911288478  0.7975685449525519  0.5496521332991403
