Ge Si O 
 1.0000000000000000
     9.9715425221535590    0.0032210717591284   -0.0028377508381802
    -4.9829815430011015    8.6340757238454469    0.0025919735385534
    -0.0030981937651995    0.0014744915580527   11.2560366660210462
 Ge  Si  O  
  21   3  48
Direct
 -0.0015108211779942  0.2245927592491525  0.1656096896987019
  0.0082074581610035  0.2273851152300505  0.6666746079264798
  0.0011294871127328  0.7252485574435352  0.1687104802190424
 -0.0112697817304210  0.7252789611630155  0.6693996834175759
  0.5013906982308015  0.2275199375862728  0.1683291859276136
  0.5073072754619551  0.2275949363336255  0.6687066794658874
  0.4976107954493670  0.7228014297966610  0.1640346841534480
  0.2782361454313112  0.2818229631081854 -0.0000778605754659
  0.2836655099136797  0.2800822456706415  0.5000423336053774
  0.2749867405545440  0.7784946765870312  0.0000455731480658
  0.2671739877426015  0.7724333420213050  0.5030033950906209
  0.7711431090811288  0.2698746082245131 -0.0033466161721656
  0.7793704627598639  0.2721472154159061  0.4999959985568327
  0.7729779705075878  0.7667385851963868 -0.0007944571363222
  0.2264794819968593  0.0018177298041573  0.3342342562905051
  0.2256681246552437  0.0049423787626408  0.8331171934040632
  0.2232623241798879  0.4997000785552921  0.3326457665986766
  0.2321868924271009  0.5090139816249479  0.8301150034836337
  0.7244733243899278 -0.0055785214256228  0.3326778059228394
  0.7261675334956967 -0.0047405113894745  0.8292924875875639
  0.7262982469379862  0.5005388875827467  0.3383003248033397
  0.4982891593910584  0.7278322883369214  0.6621269092281502
  0.7634025888755850  0.7698780454972107  0.5012455589688379
  0.7244380143423473  0.4957838078982769  0.8355946144275589
  0.0431689363189980  0.3483341882340708  0.2878748012672722
  0.0535981454200945  0.3564947677696744  0.7850615805037621
  0.0471425114779470  0.8494431036100026  0.2905367352054660
  0.0451537290188085  0.8565540163911159  0.7872936111751528
  0.5473286988243186  0.3488839629176558  0.2923577031673901
  0.5602962966366963  0.3536183253194836  0.7898709086931029
  0.5441977593866077  0.8445534717212243  0.2876450052480182
  0.5538036510033634  0.8432650060462993  0.7760055320606459
  0.1533393078768481  0.2018049722235602  0.1213078015692248
  0.1628713789420497  0.2032686638498527  0.6241153041376040
  0.1526281171386204  0.6974507137760090  0.1228802968264618
  0.1351484949979417  0.6927841695501944  0.6198427209378365
  0.6527259964486152  0.1998812036052622  0.1222612645550664
  0.6577824677050241  0.1976667371365952  0.6238880138426928
  0.6490575380037482  0.6931384814108734  0.1218328682226594
  0.6376197932131300  0.7076165170989798  0.6084508477705957
  0.3051446433726613  0.4568075422915905  0.4542297680203091
  0.3079989634204387  0.4617797423376746  0.9533520953306531
  0.2982080025132884  0.9534653498001455  0.4591475036066358
  0.2987282201746844  0.9572480478712959  0.9578059010878346
  0.8068841096767748  0.4522206693304896  0.4573827989128138
  0.7945098994330145  0.4450404608177433  0.9461195525541408
  0.7942350964016613  0.9361409665592045  0.4523951605592140
  0.7983496963347769  0.9438663483528106  0.9517511802055351
  0.3507296324849040  0.0468867713236265  0.2125446154742468
  0.3535995914291329  0.0495980519031816  0.7137890129630640
  0.3437632280455663  0.5444311680328324  0.2082674909826017
  0.3591533834469694  0.5624456262857579  0.7094129587542531
  0.8493585721081744  0.0436182320731459  0.2108325456218021
  0.8569845131185359  0.0486603750600266  0.7115762697746721
  0.8465824439097798  0.5479098009576380  0.2136316887481000
  0.8413055128578358  0.5497636359664579  0.7227016093533980
  0.2030943823733860  0.1564641526795858  0.3779046622896980
  0.2026270697961302  0.1601971446464779  0.8762340193091497
  0.1972120285744433  0.6523170341070258  0.3781703598390819
  0.2010849790808918  0.6586637668734147  0.8752369505628167
  0.6983652453312816  0.1464064403458317  0.3793407475843812
  0.6915739636971532  0.1413139737745035  0.8772988162356797
  0.6994528316529156  0.6496271993427433  0.3900194186199460
  0.6994847201731668  0.6361207927184062  0.8810772493001044
  0.4558512907878385  0.3064520453790311  0.0465474472434653
  0.4627641278651300  0.3071929220060478  0.5461385925470130
  0.4548763798996186  0.8039592590361768  0.0418808997265006
  0.4417431204999601  0.7974843346273670  0.5553377320889709
  0.9509849907928247  0.2983731314643764  0.0413127619608498
  0.9590628366184994  0.2976015124032308  0.5412059114494838
  0.9536819552233495  0.7992715443184762  0.0449719376123503
  0.9256570183015155  0.7927101583780404  0.5514740484565303
