Ge Si O 
 1.0000000000000000
     9.9759039251879127    0.0013684179290427    0.0004689199057650
    -4.9867668530696285    8.6354707862232836   -0.0057428156199408
     0.0005097774934490   -0.0069834613288745   11.2544625472599620
 Ge  Si  O  
  21   3  48
Direct
  0.0074803765896836  0.2296291080541017  0.1688203838980131
  0.0077272173224908  0.2288887420010065  0.6674229797182976
 -0.0039323845546054  0.7215610920834203  0.1662255270384309
 -0.0116086640846291  0.7213721242428652  0.6648038463179738
  0.5016736309083207  0.2260413675790623  0.1675463774620203
  0.4982400799894873  0.2225389801293746  0.6655197195012736
  0.4969981316284494  0.7262952635797033  0.1686272251242715
  0.2798140829308769  0.2778070481464849 -0.0026635739100429
  0.2792215799120524  0.2771162696714413  0.4952835837110178
  0.2734007584240171  0.7768556121738989 -0.0004755612450709
  0.2700184499613931  0.7679576464965756  0.5000125342814767
  0.7759992175037552  0.2728828191947045  0.0015134008837293
  0.7777781984224590  0.2762079145391299  0.5025834443403370
  0.7699585068379253  0.7717794170876805  0.0018596967564202
  0.2254007629480680 -0.0032669815654588  0.3317281707970531
  0.2215577056701455 -0.0009248077636148  0.8306738964213659
  0.2362161397126721  0.5085034184080576  0.8307072256537700
  0.7287786043605057  0.0003170750526430  0.3348276839522001
  0.7275583532343332 -0.0001287030969644  0.8313604253369420
  0.7222309136830518  0.5009079715739512  0.3382752715661562
  0.7189694724965153  0.4945708846424826  0.8362460305215766
  0.5021336757240307  0.7307536998995343  0.6642597847605193
  0.7649600954726633  0.7722605340243893  0.5018601663811896
  0.2289166539226569  0.5003242054400541  0.3327141298635070
  0.0635002717406355  0.3590359942846645  0.2879285411101822
  0.0568680044364221  0.3568088265279143  0.7868422842631619
  0.0460289630603417  0.8431818141695528  0.2900554434808211
  0.0417427049227596  0.8470701815339283  0.7867952226842803
  0.5438855457349393  0.3482488961431232  0.2911702579123586
  0.5402477288507835  0.3419214818141153  0.7906282579448999
  0.5476089729037358  0.8538590600873778  0.2885572141301533
  0.5550482369611384  0.8483768131684342  0.7770781547500143
  0.1583273534618110  0.2024498356939860  0.1209752543037888
  0.1616952983149235  0.2061098606272387  0.6212933953649084
  0.1474341907055144  0.6942854943266799  0.1198985176655142
  0.1352012529327045  0.6896342213052026  0.6149843841016964
  0.6537100072144455  0.1974398006579800  0.1247560986248257
  0.6523890155312297  0.1968132620495991  0.6239171947636003
  0.6482594992531796  0.6966896484956825  0.1257357175051256
  0.6425588428767859  0.7113565416357326  0.6115078586717440
  0.2994342669635863  0.4503265116301982  0.4435540028782289
  0.3108068785195685  0.4590836152267827  0.9533150189860027
  0.3018428566518127  0.9477952346872665  0.4529993223238314
  0.2989496859623028  0.9553394374393096  0.9546173806886382
  0.8041446957900277  0.4548620378781482  0.4576542561035830
  0.8012554995552565  0.4516426642956752  0.9570978231782528
  0.7947037158800219  0.9386220794843068  0.4547107510836517
  0.7960540353985427  0.9503137234138481  0.9572059499269439
  0.3489414942773715  0.0454054639761440  0.2092482889828018
  0.3440392527669623  0.0428049139488735  0.7075407032366844
  0.3451234235183413  0.5516556740750292  0.2191075931369881
  0.3640871925934912  0.5640499663503491  0.7104899823323167
  0.8584829626848387  0.0503337905830222  0.2163670262200915
  0.8587778730855988  0.0498679257893590  0.7141774224255779
  0.8412711992522588  0.5457257718588050  0.2129878071356334
  0.8391366046250903  0.5420582380389831  0.7118387661291818
  0.1969806166721463  0.1475262318912373  0.3770079587620380
  0.1979770189721587  0.1537618531569092  0.8753388819747444
  0.2054948826639685  0.6412451583788112  0.3791564657884446
  0.2038286970363926  0.6574995998040334  0.8743596966578511
  0.7030716153536714  0.1528744354758452  0.3799616916094306
  0.6986275489022186  0.1503593793011898  0.8780493886704560
  0.6970653669496587  0.6511044735291108  0.3908289997565328
  0.6923394133510399  0.6474601977848733  0.8797288198275398
  0.4582622075893825  0.3034184469255374  0.0434357039140330
  0.4579532073281589  0.3038545965703640  0.5418910281940216
  0.4516432447343078  0.8017440785005254  0.0446202331329618
  0.4443985356534887  0.7967455454167891  0.5559175743916313
  0.9560402709759235  0.3024737464156955  0.0463436052590702
  0.9566082976515811  0.3011370700409928  0.5447438114325168
  0.9502081569851907  0.8005341304366144  0.0449034544184250
  0.9284518337366588  0.7948415735779316  0.5489444250315155
