Ge Si O 
 1.0000000000000000
     9.9984927975449178    0.0120455479096127   -0.0017395856215372
    -4.9888173824696782    8.6155138031757410    0.0028318347188575
    -0.0018896518822082    0.0025136668666766   11.2506901075789365
 Ge  Si  O  
  21   3  48
Direct
  0.0063325847513241  0.2277789772970996  0.1684530984911868
 -0.0005063891462981  0.2208419624517091  0.6671104074893562
 -0.0034380651373789  0.7226648349738284  0.1651973271757294
 -0.0004813038063948  0.7294408813882493  0.6649895877000211
  0.5034385453554593  0.2272272035466946  0.1688305569522665
  0.4973931700207435  0.2273527095503695  0.6687789341023717
  0.4950271451491520  0.7263006073155942  0.1673948363383307
  0.5020509419241427  0.7264396993792922  0.6645117413357389
  0.2776736677637918  0.2698630849969587 -0.0027916561604136
  0.2746533733236733  0.2764079168480532  0.4961400908823828
  0.2707777419493163  0.7731792197411481 -0.0050274897614035
  0.2728754270160175  0.7702002563878516  0.4960068950342473
  0.7779489454510592  0.2780145523704535  0.0028782625442383
  0.7730427815620312  0.2738403926195443  0.5041723305486501
  0.7705287402410468  0.7763922544411747  0.0028541730195831
  0.2250055948019926 -0.0011129278255991  0.3304900549821209
  0.2284170549074128  0.4971381305370567  0.8307829237514983
  0.7271370802614936 -0.0012354804570407  0.3362726669008068
  0.7229253648134824  0.0012903205113613  0.8349266752976777
  0.7248690915502340  0.5018936570307670  0.3377770090055490
  0.7258357975796763  0.5033986419672118  0.8358716865311496
  0.7728773000601910  0.7742436766498622  0.5016834143605960
  0.2268774230579052 -0.0001347639360541  0.8304762824437735
  0.2279428633490718  0.5001859246093364  0.3319649391863779
  0.0638914300686819  0.3570607015875910  0.2877797431998326
  0.0489895572398186  0.3427861388672682  0.7906206752853666
  0.0466043843883611  0.8446903182526180  0.2887790230447837
  0.0621408349910105  0.8605449040975106  0.7833477278380580
  0.5455574501133712  0.3504111955639447  0.2917555280208127
  0.5465007537505235  0.3539383689881567  0.7895345840847140
  0.5469961225288763  0.8534439252558264  0.2876567625885502
  0.5456914994155457  0.8474659822997045  0.7886524485481199
  0.1524040179211134  0.1943654759467482  0.1186927284912150
  0.1522822643154721  0.1980842954710794  0.6189604698566102
  0.1471717528718657  0.6961901094473858  0.1170765841248358
  0.1434654995538925  0.6937642956408342  0.6145677362929490
  0.6560399340536639  0.2002715972490166  0.1261830527046761
  0.6476133152524325  0.1968640652776260  0.6254921345699115
  0.6453714807758150  0.6958436438509220  0.1240860005068460
  0.6542518576489369  0.7046768110609474  0.6136221279782436
  0.2973411615273757  0.4514529342541082  0.4445631002919113
  0.3060912502056063  0.4500369726671263  0.9524534964148764
  0.2998811845620268  0.9501285134101521  0.4528897544884857
  0.2927251414158363  0.9474009684587932  0.9429303133026271
  0.8019382590219380  0.4536511385438426  0.4590938654756943
  0.8022786790323386  0.4571314897807983  0.9590855598294661
  0.7952460707137197  0.9392601284232664  0.4566991445242189
  0.7962055376850056  0.9561461175877143  0.9606139655445262
  0.3495156822542796  0.0462397227008679  0.2087440925456198
  0.3458009712138532  0.0517049360312562  0.7187646081073056
  0.3442494935852154  0.5509015391782532  0.2185188838802910
  0.3506712770556988  0.5449838216661136  0.7071327549593481
  0.8566222615159198  0.0495547742677266  0.2176381725371979
  0.8468748078907854  0.0429086779112017  0.7133327699339915
  0.8442905750195678  0.5453587255423601  0.2131021526027768
  0.8517608761233935  0.5511867548161334  0.7154540041491094
  0.1979983677096720  0.1509983975918021  0.3746815677997615
  0.2046839119091798  0.1419312653437136  0.8770888943706456
  0.2037380707649613  0.6418534359116116  0.3760482490785220
  0.1980092973959210  0.6475506293778178  0.8735882457481112
  0.6993547817995377  0.1502026307524908  0.3816882779521835
  0.6992189641043312  0.1560419546471094  0.8791453713260166
  0.7059762823453114  0.6564389724303560  0.3886411247141717
  0.6988964360935814  0.6570167676144234  0.8774818040692506
  0.4573724768521443  0.3016489842885262  0.0444190691310327
  0.4522884959711618  0.3032995103453557  0.5443859275278256
  0.4487871690709893  0.8017774331861584  0.0436133298950343
  0.4522391241463528  0.8036041290004746  0.5443121550869423
  0.9568357911489359  0.3053121347481121  0.0476468463859803
  0.9514364690454462  0.2991813855264171  0.5466995282819009
  0.9492847281808768  0.8026197150370793  0.0453177657671519
  0.9382093729488308  0.8004618777042039  0.5476731289904554
