Ge Si O 
 1.0000000000000000
     9.9749886033562198    0.0045094324704794   -0.0003530266663755
    -4.9835891949273208    8.6357644530001938    0.0010778047131688
    -0.0003822008964764    0.0011330816768660   11.2524060138746353
 Ge  Si  O  
  21   3  48
Direct
 -0.0024979283901966  0.2198906824608919  0.1653416008987008
  0.0081961345031934  0.2263827964051021  0.6653402048740358
  0.0055894858534177  0.7316970116406972  0.1692094472276808
 -0.0110737700875665  0.7242735999891500  0.6667772453124456
  0.5006512394413731  0.2281338588309303  0.1710681248783304
  0.5027203366356138  0.2216682390375862  0.6681534537023416
  0.4973472379730324  0.7231835443693975  0.1654178018320935
  0.2772260427025362  0.2776583220896268 -0.0019021348399405
  0.2818482380247327  0.2719564703195191  0.4970422885585042
  0.2755672556303108  0.7768279851100001 -0.0011283479955018
  0.2685368333166758  0.7727300560916626  0.4986787946341905
  0.7702626921481555  0.2697143084646269  0.0011865831214621
  0.7783978100174649  0.2734278434394068  0.5012318130656301
  0.7748429738265873  0.7751054117877598  0.0020738027045295
  0.2233770041639024  0.0001429880938646  0.8318799415939149
  0.2230560807416642  0.4950742822227268  0.3315036710450388
  0.2346727017396260  0.5080739695081358  0.8291592402445506
  0.7221344321785298 -0.0047164886971943  0.3335877321591580
  0.7257934336876740 -0.0003705025500649  0.8304151704928316
  0.7281819949847417  0.5050285160435287  0.3395025537860716
  0.7206108486627268  0.4960993335681985  0.8371811169407456
  0.4996244402485323  0.7325796751322177  0.6622515902228004
  0.7647762435729237  0.7741095838025587  0.5027744752717386
  0.2304045880472334  0.0011116270825248  0.3332766244111097
  0.0434258879993581  0.3424657950297965  0.2883724078005891
  0.0568602899292298  0.3556594150521306  0.7837764408575923
  0.0651831194310925  0.8610066247312134  0.2881156865511467
  0.0426382984601158  0.8492960216880989  0.7889323110850600
  0.5496196588993527  0.3561055777203758  0.2908892026720763
  0.5425659653684372  0.3426332934952400  0.7918521931554048
  0.5414904802541092  0.8449971983356447  0.2890266110630690
  0.5530115147817165  0.8492037729899484  0.7756097007198106
  0.1526159477951563  0.1986366932673344  0.1198366125375626
  0.1591188563857212  0.1975542249921742  0.6203506620356948
  0.1525131653330539  0.6980985888443374  0.1212923153863722
  0.1382329923319333  0.6971188207600537  0.6165821979481946
  0.6495719931672519  0.1958803907931033  0.1256466949376886
  0.6569652625461609  0.1966031783757800  0.6253918148772509
  0.6519829572356840  0.6977432273295616  0.1250536791556339
  0.6397906557347087  0.7122353565655202  0.6104308510744311
  0.3052513821437765  0.4488411351467715  0.4506289265095229
  0.3102554143084130  0.4586735732037084  0.9511819978961510
  0.2952084095680837  0.9483919074678249  0.4462443949134400
  0.2996297397646616  0.9557059972718186  0.9564193593029828
  0.8060221375285047  0.4533371328128760  0.4583527089366997
  0.7989122755695084  0.4505082240362174  0.9591655694459731
  0.7933577567438040  0.9394759907216964  0.4539157030002251
  0.7973792861234624  0.9517620982564748  0.9555563751257827
  0.3499132991089668  0.0526094668096933  0.2219334277665097
  0.3472481105109566  0.0422579535876092  0.7095842408580547
  0.3438367893813576  0.5433708503875361  0.2069620389206945
  0.3617985279917744  0.5659875597256191  0.7085589542156221
  0.8466559615569871  0.0405595979972563  0.2116201837485820
  0.8567702369731068  0.0494162503271061  0.7130369390390048
  0.8528953710071324  0.5560487279707658  0.2177386388233624
  0.8418050718566429  0.5435657265150857  0.7134212750422710
  0.2072428601858800  0.1428146613197413  0.3781978873221949
  0.1997291750788859  0.1549912358783599  0.8750841176274980
  0.1961094850765147  0.6463375032659500  0.3778188364421844
  0.2015391120050244  0.6560861294452789  0.8748499388308142
  0.6972731210823656  0.1481937677053736  0.3800035222071257
  0.6928494961944444  0.1475889839514493  0.8776773012923378
  0.7009661813287710  0.6537226536074686  0.3916610147828372
  0.6970003004960549  0.6508332529504833  0.8799405006287743
  0.4541105677400821  0.3017870170524367  0.0464094873828190
  0.4609407924415360  0.3007371641094300  0.5440883394158408
  0.4550751540813769  0.8027641600118766  0.0419296516452947
  0.4430723806764311  0.8001174830094927  0.5535931339585954
  0.9499010780863498  0.2957935366095106  0.0428263111182150
  0.9581624111445644  0.2983804359068872  0.5415352597974434
  0.9555342119020088  0.8068142556784083  0.0473479515037287
  0.9277205070644938  0.7975042730440381  0.5515338364969101
