Ge Si O 
 1.0000000000000000
     9.9972007391588367    0.0119639580953842    0.0010557886331242
    -4.9882377664455992    8.6170432603805249   -0.0029223973132724
     0.0011710100187612   -0.0030105959615010   11.2523781431452559
 Ge  Si  O  
  21   3  48
Direct
  0.0017026084565027  0.2214993356595684  0.1676208660885313
 -0.0014637098372155  0.2219871339255089  0.6698285325984837
 -0.0023446105306485  0.7277334361555219  0.1654095674854149
 -0.0006206328237373  0.7300807685495960  0.6665471140714810
  0.5040852440928569  0.2267665836342799  0.1676315865825622
  0.4957717000767412  0.2223097122975394  0.6685350516400946
  0.4951435001483969  0.7249015306830954  0.1647479493537415
  0.5064818418284981  0.7326993191355918  0.6654423748239642
  0.2769305503823635  0.2710096241946277 -0.0015700125003442
  0.2734981058825746  0.2765680867723125  0.5008173173144508
  0.2718953108739441  0.7772796127588846 -0.0030231931404171
  0.2747933852978872  0.7783446902661741  0.4991392177705773
  0.7764829515941283  0.2699703174671482 -0.0006432035742143
  0.7715687985389295  0.2696192403196367  0.5019193223689908
  0.7710224111219660  0.7758628713202932 -0.0016160490221377
  0.2254084626012488  0.0037580511588557  0.3318291927173072
  0.2236965888663942  0.5005655168100154  0.3331124937446923
  0.2307827691031827  0.5017295924090229  0.8320474806255697
  0.7250871787276997 -0.0060979795008324  0.3346898027467325
  0.7275985293829459  0.5015221264413514  0.3369030195633039
  0.7259097987652924  0.4985008364254938  0.8344739028638626
  0.7742266977539239  0.7737902373887083  0.5008793838852238
  0.2243111265840757  0.0004187806467441  0.8317669924921387
  0.7267053726517980  0.0003621027945474  0.8339155101638247
  0.0455677274859073  0.3456816144557839  0.2898406645483843
  0.0510685727999875  0.3510692434690166  0.7887232298440924
  0.0465221120766370  0.8513788768617023  0.2880893357988166
  0.0588724634652773  0.8606340341055195  0.7854815038181503
  0.5488609601847613  0.3499145620835254  0.2907542289882851
  0.5468344366841694  0.3473966332353571  0.7902907470040769
  0.5445854366390771  0.8449839425567603  0.2896098626168473
  0.5631586575531393  0.8587895690387717  0.7869175393474653
  0.1522895862207768  0.1934053183125612  0.1204310897330384
  0.1491536555113491  0.1947137313330190  0.6223970689586734
  0.1479690740338714  0.6995831661464873  0.1187020872796442
  0.1471536262854087  0.6989285728023225  0.6183936865082504
  0.6532091280340075  0.1955849197999268  0.1222423434243623
  0.6459455940855903  0.1931124002677653  0.6231819722502966
  0.6477136602194684  0.6988581178124527  0.1206012760093640
  0.6551914480228958  0.7066918636567618  0.6123429375012250
  0.3008966159665938  0.4568499864812843  0.4572076354508306
  0.3051678558362921  0.4509231350742104  0.9535965847224348
  0.2989266425728280  0.9576426193932699  0.4568062439175833
  0.2906568154743879  0.9501778671822636  0.9452271432254902
  0.8042697455139619  0.4508036014666757  0.4568399883481096
  0.8032576054246857  0.4494228884955989  0.9550601525463214
  0.7972735414333449  0.9387976475813266  0.4551304994349196
  0.7919504098006954  0.9501459861708954  0.9479671952878743
  0.3501141185376315  0.0473229954722011  0.2105724466506869
  0.3425359669222606  0.0485123048042305  0.7196424602501253
  0.3440788762370062  0.5445809727758053  0.2089279604658796
  0.3575601479518721  0.5524078576534265  0.7114947895224281
  0.8498775501014679  0.0416718059861942  0.2127590399017264
  0.8462514008593566  0.0492930109915725  0.7227437513192874
  0.8467901365338767  0.5488926351014467  0.2119557505666370
  0.8516603526507313  0.5499870604697391  0.7136324780901271
  0.1996844829399750  0.1574154656985579  0.3753532385146094
  0.2037395208057071  0.1439595939916139  0.8774559284523934
  0.2001718373131526  0.6559446211548282  0.3754508886531018
  0.2012085543132726  0.6526464225123123  0.8749805117553175
  0.6969483187141839  0.1453279775067411  0.3797104084221968
  0.7032652677735657  0.1424298508766496  0.8787636358791756
  0.7074546418843026  0.6549006049810114  0.3886557682448684
  0.6974258520768195  0.6504832962489817  0.8767621714442597
  0.4568514616603922  0.3023348077562030  0.0447497886084217
  0.4510463204562469  0.3012415677303636  0.5463352934534027
  0.4505655218971683  0.8066350537789682  0.0442541379845389
  0.4540663238193419  0.8102668377064248  0.5468396871927899
  0.9552321789964427  0.2980885548297198  0.0449194380548360
  0.9490189910622189  0.2939184797383464  0.5463158616104091
  0.9500502326089707  0.8049706899321319  0.0436787654945661
  0.9392325930179872  0.8000957068035188  0.5478065622391413
