Ge Si O 
 1.0000000000000000
     9.9977111500601037    0.0114078139227795    0.0061128521602184
    -4.9889760882053409    8.6156860963406992    0.0048624942494865
     0.0067169350419655    0.0100715810769238   11.2558521832090221
 Ge  Si  O  
  21   3  48
Direct
  0.0061953308971332  0.2299871070600422  0.1703128443077532
  0.0091542967938912  0.2313675016697698  0.6699848293120185
 -0.0032783542816904  0.7204885170664841  0.1633486392988822
 -0.0100503971704082  0.7194993292187430  0.6621297091698198
  0.4994804747523819  0.2288367947563526  0.1663286922254523
  0.4977856143888572  0.2245777458534044  0.6653313496372648
  0.4989032495610431  0.7255046751035578  0.1699050041290810
  0.5015282904959653  0.7288190505241630  0.6679744412102091
  0.2755093886420160  0.2748909278943815 -0.0045566495903026
  0.2770897159063939  0.2763916176391329  0.4953540066965854
  0.2738700041315220  0.7689982122594292 -0.0031507418740018
  0.2708483498227576  0.7697892982262312  0.4967970347177988
  0.7774247684952512  0.2799907747563357  0.0042571690387853
  0.7781575466767674  0.2771821925994871  0.5043610025263860
  0.7710977236043033  0.7737239102173755  0.0014894050085545
  0.2231435396217881 -0.0022080160847823  0.3293230033274471
  0.2212404182645492 -0.0051752175567433  0.8292413579233270
  0.7286119833315680 -0.0007133498050150  0.3373245785935510
  0.7295439373269167  0.0058272869993377  0.8360569052894027
  0.7230012055376975  0.5011048786219903  0.3366276703564323
  0.7191832948558907  0.4979909746153217  0.8347340700160503
  0.7681340776456532  0.7708556518502944  0.5014620651849501
  0.2292443728873897  0.5006236871368740  0.3331758239306266
  0.2331027589192906  0.5019717614751218  0.8322076950533449
  0.0642565191392244  0.3583943067709909  0.2899150684265534
  0.0678549080300752  0.3606191328382516  0.7887576332102557
  0.0457331969764861  0.8430171003784601  0.2865534426984029
  0.0421267682853458  0.8432080758520496  0.7849989318928027
  0.5433540864583939  0.3506155373591299  0.2902136000337312
  0.5403583372224611  0.3451272686147026  0.7898001055489140
  0.5487046410634091  0.8536913966632937  0.2890729924242726
  0.5519777204867553  0.8556554168781302  0.7882564542126332
  0.1551851366958776  0.2019770733091787  0.1197962616512426
  0.1577281904168421  0.2024164242130914  0.6202031348281103
  0.1452280632848678  0.6895758856598956  0.1162205774106955
  0.1387347147535629  0.6903520071054464  0.6137166946918194
  0.6516774572741205  0.2004696748597813  0.1250695860673963
  0.6511194415573448  0.1977204403725853  0.6245822748066441
  0.6493910520728400  0.6957212894269686  0.1253817335604976
  0.6503764850600443  0.7029420993945084  0.6143260025574253
  0.2981259250929190  0.4516160771678968  0.4458785346254464
  0.2995881788744727  0.4509955332573889  0.9450757719012400
  0.2995737663684500  0.9492020280334313  0.4505369170355496
  0.2997820005499955  0.9470232083256377  0.9497330975622991
  0.8032358277867550  0.4549121752579416  0.4570253370338307
  0.8001239601173034  0.4576527737877238  0.9581274252634165
  0.7932054640272574  0.9374097114389783  0.4581497312937539
  0.7985458227767974  0.9547268403853890  0.9609087596494122
  0.3465620644947860  0.0475810464574360  0.2067370671727873
  0.3440318135988645  0.0438078224807760  0.7060575198647129
  0.3464449320307784  0.5502576484208918  0.2200931604647709
  0.3514091396944483  0.5527080258162204  0.7196920900948773
  0.8585562578686622  0.0501254098099360  0.2188992359638137
  0.8585710574716943  0.0532089409639672  0.7175766219167203
  0.8423890573805976  0.5445370724167343  0.2116903679831176
  0.8399966749430755  0.5409129254712687  0.7108585033327672
  0.1959856100061506  0.1493224225120536  0.3754788921457991
  0.1949351039347264  0.1467388865038285  0.8761502400954392
  0.2055041305678492  0.6426526798807537  0.3763298993588891
  0.2083192895770805  0.6432667290377774  0.8756341048045507
  0.7050980097310282  0.1532446898958065  0.3821676217412933
  0.7047549819350687  0.1597704748174552  0.8796702832011402
  0.7005632070391850  0.6534666219449753  0.3883864081598584
  0.6935051266006960  0.6523352861957775  0.8774822086330343
  0.4552437689327994  0.3058387856628627  0.0422162960641783
  0.4560422359394987  0.3046946007338872  0.5416222130358658
  0.4519639484600393  0.7993513684312455  0.0460238948102073
  0.4486960090910417  0.8021112728958711  0.5473362520138283
  0.9554542019334291  0.3073338186350821  0.0503558461616746
  0.9571548513848782  0.3063160386506066  0.5494591104222701
  0.9507540578480597  0.8004888593896411  0.0426518892450372
  0.9331552140563418  0.7945617835253022  0.5451102994376771
