Ge Si O 
 1.0000000000000000
     9.9780046421720634   -0.0000001258729896    0.0000000194093545
    -4.9890024300951854    8.6412054600417498   -0.0000000158267678
     0.0000000381983891   -0.0000000175221342   11.2516299560865836
 Ge  Si  O  
  21   3  48
Direct
  0.0011430569231228  0.2267487122986194  0.1620448568797572
  0.0011973265691918  0.2283962406882095  0.6629212761721340
 -0.0011423688809977  0.7256057043002240  0.1712879799261777
 -0.0011981262269430  0.7271986775541952  0.6704128548470688
  0.5000005267909640  0.2301299643918718  0.1666656473592755
  0.4999992129880401  0.2230014813172983  0.6666674517494073
  0.5000000472247272  0.7220166244004986  0.1666669041319901
  0.2779844525798229  0.2779844490594638  0.5000000031208574
  0.2728018978501570  0.7716044536249860  0.0037452933732284
  0.2743935941562696  0.7732505598213493  0.5046220013593448
  0.7716044533674190  0.2728018996769103 -0.0037452933607299
  0.7732505588984047  0.2743935923947275  0.4953780006739500
  0.7769972283945830  0.7769972260060137  0.0000000016813046
  0.7698713586650854  0.7698713586905725  0.4999999965784214
  0.2283962336970743  0.0011973241925206  0.3370787201123828
  0.2267487192801163  0.0011430566277143  0.8379551438232862
  0.2230014849352788  0.4999992105990237  0.3333325465690840
  0.2301299579742408  0.5000005268160939  0.8333343560621036
  0.7271986747667349 -0.0011981217653753  0.3295871488557247
  0.7256057098160043 -0.0011423694235805  0.8287120173374661
  0.7220166159473249  0.5000000437042634  0.8333330927474326
  0.4999998921364083  0.7253418543647570  0.6666665604880048
  0.2746566920988018  0.2746566938763313 -0.0000000037315305
  0.7253418620065424  0.4999998939136884  0.3333334432437871
  0.0453056599329191  0.3474505743556455  0.2863062098529908
  0.0505730046834938  0.3535631355353788  0.7841291939464707
  0.0485048600757747  0.8513903436209621  0.2923305037514572
  0.0462314490917284  0.8505140130382476  0.7934016955374654
  0.5606602802626598  0.3607495826072234  0.2852048605009898
  0.5443902055483651  0.3458290505781195  0.7894373641720284
  0.5468658914792963  0.8448920154649752  0.2894258114725032
  0.5522471387904349  0.8449696456718140  0.7782023476121519
  0.1550302325388404  0.2072784729215952  0.1115355649426350
  0.1551080890144297  0.2019728825501075  0.6227597401300257
  0.1494874311038514  0.6957166112806085  0.1267349884505065
  0.1486082355526984  0.6971153408472809  0.6256638874491187
  0.6464379478497011  0.1970102665782729  0.1174618095934559
  0.6525483216361150  0.1978544677492276  0.6196405450762128
  0.6541711177966053  0.6985608297696020  0.1227709996812129
  0.6392501918248529  0.6999108885725511  0.6185380652811917
  0.3014391312506069  0.4556113736587611  0.4561038673549457
  0.3000892006807210  0.4393381448625225  0.9518717134228413
  0.3042842670045575  0.9537709574488455  0.4600694984265906
  0.3028837966191065  0.9514929560177143  0.9589960606370069
  0.7927230272928599  0.4477536093914097  0.4448693960867921
  0.7980258481992391  0.4531336429906486  0.9560921299643999
  0.8029891121846680  0.9494271472024312  0.4507949458283675
  0.8021459848836139  0.9546945714758902  0.9529739323406786
  0.3535631356444938  0.0505729998778922  0.2158708022406189
  0.3474505772845565  0.0453056713297147  0.7136937933512957
  0.3458290550462247  0.5443902059161246  0.2105626284775039
  0.3607495755867936  0.5606602743371247  0.7147951426930810
  0.8505140074904105  0.0462314450691274  0.2065983078299398
  0.8513903502890267  0.0485048653651377  0.7076694917381670
  0.8449696451421169  0.5522471456118471  0.2217976542144034
  0.8448920132635723  0.5468658869528693  0.7105741874627304
  0.2019728806938947  0.1551080912456004  0.3772402617219004
  0.2072784715777162  0.1550302255170914  0.8884644348517045
  0.1978544569763688  0.6525483220278935  0.3803594481482888
  0.1970102736102073  0.6464379487356436  0.8825381966341950
  0.6971153475024737  0.1486082386033690  0.3743361199576464
  0.6957166032081974  0.1494874293126417  0.8732650063791219
  0.6999108868500390  0.6392501880649186  0.3814619329022136
  0.6985608292338573  0.6541711174927776  0.8772290021789017
  0.4393381409743845  0.3000892000530824  0.0481282851996689
  0.4556113737944966  0.3014391266145190  0.5438961381352376
  0.4531336343776585  0.7980258440182223  0.0439078692486585
  0.4477536218913817  0.7927230333001020  0.5551306022925800
  0.9514929649107567  0.3028838018948596  0.0410039364671816
  0.9537709471440360  0.3042842604566742  0.5399305033768588
  0.9546945717081694  0.8021459825791390  0.0470260712296211
  0.9494271485430352  0.8029891143024804  0.5492050517561372
