Ge Si O 
 1.0000000000000000
    10.0012896578415162    0.0094871261022411    0.0044985286947028
    -4.9924286882926978    8.6102768282685656    0.0065017794067498
     0.0049320979410071    0.0111227856582124   11.2542167301040639
 Ge  Si  O  
  21   3  48
Direct
  0.0058067110455404  0.2307415212231696  0.1731732903069330
  0.0048776813660825  0.2260818505594258  0.6698509336112739
 -0.0034916371219834  0.7209472900793419  0.1644856852348368
 -0.0093003968336885  0.7242418693328805  0.6620858509347345
  0.4982107801217535  0.2239645617765764  0.1661789569678545
  0.4976652850494416  0.2233413527175861  0.6640812812764459
  0.5038094897642774  0.7314389095265103  0.1699145503262997
  0.5023287040728834  0.7284761972284325  0.6648852082024722
  0.2742283157515177  0.2744026524696787 -0.0002381748354451
  0.2762759416513701  0.2779966457744649  0.4968216963526122
  0.2756498110287835  0.7772348500757754  0.0000877740085884
  0.2712419542127878  0.7734584838009642  0.4989138330755576
  0.7766001621544372  0.2763605206434810  0.0028786270347815
  0.7765772875038878  0.2691147652979449  0.5017145674907395
  0.7717372562675395  0.7717648901551658 -0.0001839835819511
  0.2203600081610685 -0.0013622557260407  0.3305234518474530
  0.2209155013712569 -0.0009348547976560  0.8304797713640392
  0.2303075376549666  0.5031693846835156  0.8334007090294601
  0.7273384651449891  0.0012914954893036  0.8350987396723382
  0.7227921015685623  0.4963955532383922  0.3351978887247725
  0.7212132967493191  0.4967871372973936  0.8333051400909426
  0.7695756086852016  0.7714801652689940  0.4967174663689202
  0.2320144345456113  0.5055938791804383  0.3345043737080268
  0.7328753996252616 -0.0013067392567835  0.3363109989493114
  0.0676120030427271  0.3648816510453045  0.2888100474181715
  0.0504994373087314  0.3499674015818172  0.7918491932859727
  0.0425195661692839  0.8440508191322619  0.2872940440389968
  0.0413033191392147  0.8487584824583839  0.7845585630932874
  0.5430528538436210  0.3452816923839611  0.2903454869306232
  0.5427618714517587  0.3435649152292277  0.7888127664855161
  0.5679187251278925  0.8643089200139638  0.2860840498358106
  0.5497020908478647  0.8481690711430911  0.7897249017777372
  0.1516318748637082  0.1972807594544830  0.1228814809362894
  0.1572735618602769  0.2020415750696373  0.6220511540285134
  0.1486673191653740  0.6945207487600920  0.1200671903579744
  0.1390906548574879  0.6931024291244756  0.6156273500336638
  0.6511757958002128  0.1977609316056705  0.1240803735171086
  0.6480684605791390  0.1929292522666347  0.6213784744506343
  0.6487729215197219  0.6948257064644030  0.1227914614742701
  0.6531104406418031  0.7073692232115296  0.6102020638139160
  0.2981483722670769  0.4535521978061399  0.4472106010912046
  0.3037831637649117  0.4563237558862683  0.9579658847235557
  0.2966108647106155  0.9516983234956983  0.4528963107749261
  0.2984922030992952  0.9548427799965570  0.9539515609970241
  0.8033697951137334  0.4466448483446564  0.4528262147929673
  0.8020847070390265  0.4549568388138085  0.9558539917939061
  0.7904517276239850  0.9329330338001951  0.4452944481171754
  0.7996965384052318  0.9533196457853271  0.9597065570552513
  0.3443460933996046  0.0440196199240238  0.2084498823450812
  0.3435214640386046  0.0439189865118633  0.7075317570861714
  0.3524770728867213  0.5582886320917608  0.2237659495584045
  0.3525222587272385  0.5469933994583650  0.7099727647554378
  0.8574551720929106  0.0563101742644617  0.2281184233087336
  0.8519765555157854  0.0463150831942299  0.7134761926239914
  0.8424376033833555  0.5431730150589145  0.2101514237717233
  0.8415001837435245  0.5439109921809422  0.7089181873062420
  0.1948804136100236  0.1514982093621756  0.3762446745386850
  0.1959325675784111  0.1527158870847621  0.8762782257463939
  0.2074625913653993  0.6469931904593195  0.3780723858994856
  0.2050560121484796  0.6573640604078252  0.8750874406045070
  0.7087735337439331  0.1385559346235629  0.3839003994572996
  0.7019570895463610  0.1547343505295981  0.8790497474539515
  0.7005857148654980  0.6479963365817677  0.3876921286119895
  0.6943513028340225  0.6502532511880947  0.8761228292755702
  0.4536537464652112  0.3023292773878802  0.0434979232571762
  0.4552472995803820  0.3050504158696806  0.5418256040763619
  0.4540697102679205  0.8067963441938034  0.0481586491628211
  0.4502852263224549  0.8075151898700658  0.5476294187617042
  0.9540046627767612  0.3035989674607634  0.0508617067472976
  0.9561362204186938  0.3012782636528255  0.5478383826467218
  0.9510572538293837  0.7988587645664795  0.0420440292631567
  0.9349022830746522  0.7977665251619885  0.5428590667551693
