Ge Si O 
 1.0000000000000000
     9.9964506036098317    0.0119576012299003    0.0054296423327887
    -4.9878707195481313    8.6059215081767420    0.0020128869129522
     0.0059847335963688    0.0060436409139761   11.2618806261373976
 Ge  Si  O  
  21   3  48
Direct
  0.0009122557541552  0.2247299838624060  0.1727978456920290
  0.0038304331722531  0.2264658847637546  0.6727929547917048
 -0.0021357489158542  0.7259728211778563  0.1646247721750724
 -0.0095425635576825  0.7249614962134261  0.6633022841464982
  0.4988361122930973  0.2235861393216928  0.1649178328805401
  0.4965081401401057  0.2185049574412889  0.6637893925332879
  0.5039481029019439  0.7301002326458501  0.1673100142648253
  0.5062111578053420  0.7338755882675433  0.6656380517108377
  0.2734168679474460  0.2760028689880561  0.0015443438337633
  0.2750871036150897  0.2780290374695539  0.5016832208537031
  0.2766642072639627  0.7811811339192545  0.0016501445105237
  0.2730226491339652  0.7817517722386731  0.5017882176149172
  0.7750474285240290  0.2682470643829188 -0.0007745473668147
  0.7758045418308059  0.2654188932555577  0.4993833319015129
  0.7726643598072388  0.7717797031003246 -0.0044772428183382
  0.2209131965745345  0.0036487449906008  0.3317898902049833
  0.2188921210911486  0.0000672777516204  0.8317171244269009
  0.2279224554998425  0.5060089016333578  0.3356014054791444
  0.2322605405969734  0.5074856235566279  0.8346245747903738
  0.7258127696008942  0.4959954267783712  0.3342954824664718
  0.7214681469941130  0.4922515731356860  0.8320000874225206
  0.7700774934225312  0.7704225252884306  0.4958471352146236
  0.7301405438969510 -0.0061588627403369  0.3347387100374192
  0.7306348238685758  0.0001067030028738  0.8338530227023527
  0.0486138940674364  0.3544789376256341  0.2911345477439514
  0.0523956282053917  0.3573036577103906  0.7902011446254221
  0.0428461094304965  0.8501891110177470  0.2867554200293575
  0.0387826457375201  0.8495222322113907  0.7858291952182817
  0.5467524064591515  0.3441819146801859  0.2896198542135824
  0.5435597844129110  0.3369949591288700  0.7896011061047934
  0.5642734620671255  0.8569989108806699  0.2876553866663274
  0.5669942995051507  0.8592476409610805  0.7871128895500951
  0.1517487042233232  0.1971669991153108  0.1252162301024607
  0.1541970504794150  0.1980650270581442  0.6256886548764579
  0.1492533876657753  0.6973576471208867  0.1210765047767478
  0.1418142635777358  0.6974271017466824  0.6185406764515965
  0.6478623269369238  0.1926242996204529  0.1195822831046486
  0.6468684253301357  0.1894588276584262  0.6187382906405340
  0.6522013080941165  0.6990899636512380  0.1197274396051374
  0.6532167501798996  0.7081980267829101  0.6087079402288327
  0.3013133626545766  0.4587236873196421  0.4601157073881239
  0.3022485285711280  0.4575419941158123  0.9594872700464593
  0.2958656398562222  0.9598273382352956  0.4570035838610857
  0.2970583807137147  0.9580010459891523  0.9560604493611511
  0.8064081429008809  0.4445516602967999  0.4507485302581405
  0.8035506468028674  0.4474899409341027  0.9517012053858195
  0.7911177201118463  0.9318135875947291  0.4439300099408870
  0.7952415892816560  0.9477332843447839  0.9469146508442471
  0.3447174671270918  0.0452308396848742  0.2100993074128588
  0.3411453520869547  0.0406575026718255  0.7088382805930039
  0.3535092884118179  0.5512103250046252  0.2148800401118775
  0.3590531429365392  0.5536779209518105  0.7144534716031814
  0.8510084867555539  0.0481034682624922  0.2239114417123090
  0.8512595687598639  0.0517010739955386  0.7232223409458680
  0.8449502488876141  0.5468037846916368  0.2089946697891102
  0.8414489277731705  0.5430632773436104  0.7072800412460488
  0.1963681409170140  0.1578903515024756  0.3770497926395638
  0.1950498801078209  0.1546959989565679  0.8775350172826680
  0.2050683290001425  0.6621286043537228  0.3764615935142956
  0.2082769983311563  0.6627877432113770  0.8757814619366120
  0.7070087406285335  0.1347606765219852  0.3815044787832832
  0.7058737771807947  0.1410807636875938  0.8787504290666706
  0.7016019096857515  0.6460897127124668  0.3875645417221323
  0.6929568485772034  0.6440084031834366  0.8758158396208958
  0.4533902580608160  0.3041126276259201  0.0442786979482903
  0.4541200206728828  0.3033091619637470  0.5440560198225000
  0.4554215208238467  0.8104809804750294  0.0483169563661656
  0.4515734490003177  0.8133043736748390  0.5500849503330552
  0.9520880663460062  0.2960476095994991  0.0483170168281902
  0.9538502695006389  0.2952728879494330  0.5476791334589070
  0.9523432650850981  0.8017479834780389  0.0405850570936747
  0.9353344468149152  0.7974106422502397  0.5429523996747637
