Ge Si O 
 1.0000000000000000
     9.9696497755727584    0.0064585063535123    0.0075019215368307
    -4.9792316571327015    8.6371992535946305   -0.0075019177349658
     0.0082610422397251   -0.0047695100922208   11.2519360038988587
 Ge  Si  O  
  21   3  48
Direct
  0.0005569985951592  0.2219952549035456  0.1667745606481117
  0.0062990375099806  0.2305027033209700  0.6656700972688209
 -0.0015256529407572  0.7269681809758227  0.1711813149766961
 -0.0097063524786699  0.7234725208522125  0.6679026639973038
  0.5085961381792896  0.2338323013327037  0.1696020876071402
  0.4999016543933931  0.2213901661693683  0.6674480607737079
  0.4943492789840420  0.7213077417639286  0.1637985105260645
  0.2801225857563827  0.2801225856815512 -0.0000000001292238
  0.2824951332912749  0.2824951331942481  0.4999999998551240
  0.2706286018640081  0.7758735514723356  0.0011745238989579
  0.2710635517751195  0.7751550472126560  0.5019375772154503
  0.7758735514365996  0.2706286015037851 -0.0011745241367833
  0.7751550473728530  0.2710635515327567  0.4980624225623907
  0.7726145975417371  0.7726145972973940 -0.0000000001160025
  0.2305027026244469  0.0062990372747420  0.3343299029871971
  0.2219952544715844  0.0005569985140942  0.8332254395732615
  0.2213901657377569  0.4999016543384976  0.3325519392287253
  0.2338323008195933  0.5085961381629259  0.8303979124819725
  0.7234725203816958 -0.0097063528118724  0.3320973362121208
  0.7269681806008995 -0.0015256531880111  0.8288186851780003
  0.7213077412776954  0.4943492787547188  0.8362014895007225
  0.5006530370997064  0.7285491338410007  0.6615512019012926
  0.7641654138594278  0.7641654135148686  0.4999999999227072
  0.7285491335224437  0.5006530368348758  0.3384487980778016
  0.0422436552956508  0.3462794065271056  0.2887603692704190
  0.0542653650020769  0.3582019123803814  0.7851511839008336
  0.0510283095738766  0.8565671833057363  0.2897410528368672
  0.0413848462187401  0.8499821206487584  0.7891166001026282
  0.5639098239059531  0.3613943678094205  0.2901690748059922
  0.5427664855349236  0.3408355351828979  0.7925463446476760
  0.5420267057762987  0.8419026446465617  0.2881535820468055
  0.5558060638399390  0.8458167328844516  0.7746355533983530
  0.1567157698936328  0.2008225775754776  0.1226323866548155
  0.1602190915658852  0.2052569016155857  0.6230126841657867
  0.1470740711024801  0.6950792326246804  0.1235811415780036
  0.1403119494103223  0.6957396464192169  0.6195452553264581
  0.6564154775825931  0.2000835483530147  0.1238642785492471
  0.6541905639807547  0.1974794183679897  0.6225867856446309
  0.6485305851339317  0.6960443051169846  0.1222409988393631
  0.6380579456555164  0.7047651105810246  0.6073161679195175
  0.3044565785438605  0.4593357608885388  0.4545843406742043
  0.3095292487439671  0.4596722099644345  0.9525601220367184
  0.3017157566608056  0.9561389354625212  0.4585325017272260
  0.2957402995209445  0.9547689767179718  0.9582565306901053
  0.7978596824839973  0.4449635292742687  0.4461183770526165
  0.8028128898256298  0.4509858370477774  0.9573366562776471
  0.7934349094316187  0.9283557674698911  0.4487414571258398
  0.7990894898776132  0.9506821573270344  0.9534679550659692
  0.3582019120464264  0.0542653658796047  0.2148488161529271
  0.3462794062156824  0.0422436560482160  0.7112396306224336
  0.3408355349471738  0.5427664863238851  0.2074536551083362
  0.3613943674595999  0.5639098246337577  0.7098309250313692
  0.8499821206220238  0.0413848468217541  0.2108834000161106
  0.8565671833208514  0.0510283104019638  0.7102589471427337
  0.8458167328145451  0.5558060642414470  0.2253644464260242
  0.8419026443705938  0.5420267065322090  0.7118464177408882
  0.2052568998121879  0.1602190900858884  0.3769873167687562
  0.2008225762095352  0.1567157686724251  0.8773676141665238
  0.1974794173094678  0.6541905629553567  0.3774132149988416
  0.2000835472336958  0.6564154766261379  0.8761357221416131
  0.6957396454516360  0.1403119481813943  0.3804547455046651
  0.6950792313031229  0.1470740696944759  0.8764188591859762
  0.7047651102571501  0.6380579447810241  0.3926838326508835
  0.6960443041095079  0.6485305840241103  0.8777590018462238
  0.4596722106077383  0.3095292485883913  0.0474398772853386
  0.4593357614632793  0.3044565780827456  0.5454156584892380
  0.4509858379408472  0.8028128896181504  0.0426633429314490
  0.4449635302017970  0.7978596824518311  0.5538816222215923
  0.9547689771723825  0.2957402989876666  0.0417434687454524
  0.9561389362371600  0.3017157566536520  0.5414674978018145
  0.9506821580873371  0.7990894895314063  0.0465320443757976
  0.9283557685685225  0.7934349095388979  0.5512585422954425
