Ge Si O 
 1.0000000000000000
    10.0181273463939107   -0.0000001269246609    0.0000000113023023
    -5.0090637788596739    8.6024509936476932    0.0053862993587916
     0.0000000253686421    0.0068639781701753   11.2498908808957818
 Ge  Si  O  
  21   3  48
Direct
 -0.0038300248435527  0.2284377767512594  0.1692737844338028
  0.0072899230539915  0.2300670005666621  0.6693363867988836
  0.0009342695535291  0.7218646964629997  0.1660045872240095
 -0.0067917520288101  0.7241974885802958  0.6669656503184914
  0.4936083476011844  0.2227842811514724  0.1643180972784713
  0.5056059651942045  0.2284374235816680  0.6668334455203868
  0.5075375353120191  0.7292776216768113  0.1678231761981543
  0.4948501205571638  0.7233334047002468  0.6688805109289025
  0.2690107642450575  0.2758025227250088 -0.0002989843194372
  0.2790695695747795  0.2781353021846535  0.5006620743845065
  0.2771685443998355  0.7715625791428244 -0.0001667836707440
  0.2708240711676212  0.7772157239382712  0.5023485721896578
  0.7715167149390507  0.2766665970027007 -0.0022138429779681
  0.7782599150174452  0.2707223827636339  0.4988434842936477
  0.7772229252664458  0.7699330007460219 -0.0026697231448416
  0.7677321962466530  0.7715622267804711  0.4973928833035614
  0.2212068288328335 -0.0000000025567045  0.3333333345916895
  0.2259040538424460  0.0000000026651161  0.8333333350841142
  0.2285855136366486  0.5049309107677573  0.3347344226547787
  0.7284716199587778  0.0000000009652390  0.8333333356243129
  0.7236546045672311  0.4950690938982535  0.3319322449936918
  0.2259834051008353  0.5005673035659356  0.8344856967886198
  0.7284726281970352 -0.0000000005701683  0.3333333333204606
  0.7254161064748902  0.4994326965779470  0.8321809689268115
  0.0483642299760668  0.3547474134966533  0.2903846730203677
  0.0609694944902488  0.3580034707246347  0.7896903722285009
  0.0433442818141863  0.8441773730684654  0.2895254563860984
  0.0460806264067755  0.8498076558619265  0.7884367948688977
  0.5438610596843634  0.3413176639214900  0.2902539050234736
  0.5612076427733033  0.3557742118622642  0.7877339062551911
  0.5641344550743094  0.8578063584637308  0.2877370583278864
  0.5487956368649453  0.8479987877950719  0.7909561794339014
  0.1451493768982413  0.1991622776098591  0.1218517424492390
  0.1564424882962748  0.1999985905586859  0.6235001189790398
  0.1510176180863938  0.6925325488993915  0.1209587350996735
  0.1422815696088285  0.6942666881759960  0.6212335825950124
  0.6448737035904830  0.1972032417321546  0.1178453717981651
  0.6517778132523683  0.1944020044544761  0.6196023123895843
  0.6529907077454259  0.6948102226341563  0.1195779059309371
  0.6438167142688161  0.6953795999742188  0.6196401341737677
  0.3035453824806633  0.4580793424793471  0.4585580539305314
  0.2921480751122139  0.4509538835104231  0.9482818501147134
  0.2982512907013862  0.9572512462730980  0.4578240957065829
  0.3022996658256906  0.9501327324967234  0.9540869216990380
  0.8034260960273680  0.4493387393778013  0.4528747475045299
  0.7943216113298610  0.4513081971517713  0.9451368371159996
  0.7942130494175288  0.9480822662600161  0.4459521989501622
  0.8042633419379782  0.9503213697100885  0.9546418390113566
  0.3410000576835404  0.0427487506528959  0.2088425826892438
  0.3521669447763680  0.0498672632559512  0.7125797534798913
  0.3540873661208769  0.5506612627402596  0.2137919241245363
  0.3430134235499029  0.5486917977277289  0.7215298371144397
  0.8461308059226760  0.0519177277808409  0.2207144814818127
  0.8539419803400666  0.0496786277561858  0.7120248365545404
  0.8454660444862849  0.5419206509809794  0.2081086143627014
  0.8411942117931774  0.5490461159090458  0.7183848235888523
  0.1991669118517822  0.1558226227128565  0.3771412061559107
  0.1962729951481007  0.1501923611478074  0.8782298669153832
  0.2025434094520550  0.6586823429315738  0.3764127624095654
  0.2054334329512545  0.6442257889449707  0.8789327574100226
  0.7063281034433149  0.1421936432909610  0.3789296028292158
  0.7007968597618816  0.1520012171806969  0.8757104859907843
  0.6936168308008055  0.6452525959223119  0.3762819900768297
  0.7029660302777893  0.6419965280237747  0.8769762917785769
  0.4480148807960881  0.3057333113109505  0.0454330868934894
  0.4584850659341931  0.3074674455482684  0.5457079247713236
  0.4573758109972422  0.8055979905218990  0.0470643450574161
  0.4476704652466887  0.8027967536361214  0.5488212933099359
  0.9484371092904507  0.3046203869763083  0.0470265314820643
  0.9581804832455207  0.3051897700021698  0.5470887553823470
  0.9564439010835840  0.8000014042660608  0.0431665408526956
  0.9459870975141091  0.8008377202170507  0.5448149215506412
