Ge Si O 
 1.0000000000000000
     9.9989000825009757    0.0138448460042953    0.0047271232323842
    -4.9874595048285215    8.6099104438823026    0.0050083357928524
     0.0052111199218016    0.0093598019556016   11.2547614842864618
 Ge  Si  O  
  21   3  48
Direct
  0.0028826734866262  0.2258797967656298  0.1682170340386973
  0.0028984980574808  0.2232150065146019  0.6667965327248592
  0.0029303396123851  0.7288839826874164  0.1661321793200239
 -0.0069782966605868  0.7236313019968920  0.6634945464170624
  0.5002365361845027  0.2282403615325959  0.1709601073708083
  0.5004179722470312  0.2261335794118448  0.6669335637097648
  0.4964941001732091  0.7235018206710159  0.1686958339364586
  0.5009551646144672  0.7293877737424825  0.6636709398242148
  0.2765974510343153  0.2752460574128219 -0.0015676025801288
  0.2759604625688649  0.2704519145537350  0.4952205917962218
  0.2750071192672947  0.7746743960816077 -0.0025716648003366
  0.2695943336506809  0.7686141741415172  0.4941030061528802
  0.7738322811375428  0.2757724219801486  0.0039755259405139
  0.7773187229276660  0.2763883278735103  0.5030081658557624
  0.7718823894046537  0.7747532078878165  0.0027230889206236
  0.2239152642922613 -0.0005951271276789  0.8304251729945303
  0.2291600663355050  0.5013013622173639  0.8309617077181213
  0.7251171871610167 -0.0016210550736887  0.3363021441531486
  0.7249970037323837  0.0017503461356775  0.8349096388777407
  0.7273996686888462  0.5054457081369893  0.3377973907526681
  0.7225169845043486  0.4994695849715783  0.8357110539530885
  0.7716753927482319  0.7755837234469348  0.5014198499872309
  0.2275512624118111 -0.0017614022800229  0.3306909978175126
  0.2270374687986974  0.4954728296522078  0.3318734959344145
  0.0620173492295340  0.3536116696963346  0.2882453745634752
  0.0505303406023291  0.3472604038387873  0.7889933508144110
  0.0629839638308095  0.8582732828285112  0.2849551451846377
  0.0447266451607699  0.8481019723800628  0.7859676314537314
  0.5481451396953760  0.3562172812226287  0.2909379238551543
  0.5434182457028623  0.3471621559460165  0.7909050867132680
  0.5456187236946375  0.8507756804870660  0.2888195868064360
  0.5471465611634264  0.8497177507814846  0.7881027631090954
  0.1514781033050256  0.1963181100236586  0.1195512344802808
  0.1527607523607276  0.1952553959915276  0.6182028916005392
  0.1496149980378991  0.6957646746955322  0.1183983489657345
  0.1408871546517486  0.6938378337370842  0.6134425563696753
  0.6506041806814673  0.1982610648314202  0.1267357626881333
  0.6532826972147147  0.1991692162173520  0.6251862912066548
  0.6481141734558737  0.6948974354161125  0.1251828969076640
  0.6521439376685852  0.7060681947401968  0.6127239126948292
  0.2964387726669236  0.4437890910489358  0.4423090844146125
  0.3056559247778586  0.4564554530892072  0.9548198648541701
  0.2918824795963927  0.9425513252404752  0.4416273304896827
  0.3005933940118174  0.9544099544826317  0.9541683114850642
  0.8044720285063253  0.4559468688877806  0.4584524530857456
  0.7996191701846496  0.4552546287588579  0.9593844407209708
  0.7946632042260701  0.9411284586372280  0.4571123520574583
  0.7975604857613656  0.9544714932129692  0.9597259305371184
  0.3480533075847894  0.0522079575824540  0.2198878422263575
  0.3467706530355911  0.0449865193841305  0.7075199448687648
  0.3443074569632317  0.5480242166800080  0.2187415756021450
  0.3507343005682631  0.5475322355899930  0.7070395687713228
  0.8530711643612792  0.0472653701501066  0.2166562437211823
  0.8499671123673453  0.0456017917287433  0.7137780819040399
  0.8508917236093355  0.5526828284877128  0.2155809040422625
  0.8444326896832736  0.5442632345336945  0.7125193264470328
  0.2039894536317683  0.1388845526105563  0.3778050296147176
  0.2000772043879723  0.1540823066399759  0.8745564001601299
  0.2021033749417193  0.6358345462721895  0.3774871282362355
  0.2017176786317359  0.6543561203054179  0.8729450773167068
  0.7004342295863268  0.1520483121657300  0.3810703515231250
  0.6983085592175423  0.1543527633637805  0.8800575610257934
  0.7062669360126298  0.6590097220883973  0.3878703972706417
  0.6969559092397932  0.6536706668852992  0.8784436727369551
  0.4540089051710525  0.3014941188220635  0.0458745035068486
  0.4559429766105689  0.3042406473746283  0.5436785156046862
  0.4519845683926658  0.7996830107238885  0.0445394993999415
  0.4497730290175272  0.8067152697602303  0.5443224354758294
  0.9529953688941313  0.3042037855853853  0.0484654224466651
  0.9554053791832784  0.3005936317233202  0.5452046031923853
  0.9522837711364083  0.8051849144947245  0.0456583673868724
  0.9357657752041265  0.7985619875200028  0.5464637216427247
