Ge Si O 
 1.0000000000000000
     9.9705898595975384    0.0023950788331547   -0.0001262945349137
    -4.9832208201110104    8.6343426810181345   -0.0053451572345667
    -0.0001382320649627   -0.0068627072507355   11.2555566772081779
 Ge  Si  O  
  21   3  48
Direct
  0.0031265503476301  0.2239868201189502  0.1678686038195883
  0.0068931205026944  0.2294095484859762  0.6700104123364209
 -0.0026660239087606  0.7267664872088297  0.1664405481572205
 -0.0117517300065222  0.7217538680650047  0.6662843921836518
  0.5022237745891486  0.2253142636202630  0.1663184415913039
  0.4969488310514161  0.2174473369024643  0.6653901466307095
  0.4975350184311200  0.7248848524823294  0.1660115040164089
  0.2791695430202429  0.2792410754735732 -0.0013967018668159
  0.2778135090566927  0.2767328910811888  0.4998890981824186
  0.2743265008002460  0.7806056287198019  0.0015452535598717
  0.2722688987629534  0.7763562716394932  0.5036316787993761
  0.7741678692748972  0.2646222570259710 -0.0019479653925994
  0.7767475003357246  0.2722102754581802  0.5004972914890263
  0.7709115771698409  0.7716066337525507 -0.0027312149412039
  0.2255960035824464  0.0015081747158796  0.3329567676669335
  0.2191142285545373 -0.0003208039441315  0.8319407144719698
  0.2248895594838953  0.5008916712579629  0.3341489123042694
  0.2381705873101221  0.5132324309146089  0.8317984110473375
  0.7267933678348610 -0.0042646085013312  0.3332038512571251
  0.7248564178619301  0.5003531916252444  0.3372052348835730
  0.7188517931598725  0.4897758190112083  0.8348511281062504
  0.5071716775624366  0.7377246252688678  0.6653063444659658
  0.7657633365139366  0.7711776685802803  0.5007193889272205
  0.7307153684980473 -0.0009484365753168  0.8303617910257166
  0.0452756255272775  0.3486457621127664  0.2894008580748113
  0.0594831317950766  0.3640610479978303  0.7846780444827945
  0.0456889944318202  0.8497267318714889  0.2893924832056992
  0.0386641291382345  0.8478044725658179  0.7880752678685233
  0.5471972674825655  0.3472932471095617  0.2901647468162253
  0.5403864034489664  0.3357630524299181  0.7911500607947017
  0.5453493709078209  0.8461232119508533  0.2900407088714745
  0.5722090549918856  0.8597946723026826  0.7750933093144694
  0.1583100376998211  0.2020630206952690  0.1227411354790957
  0.1575045336408694  0.2003299132371899  0.6243359544181494
  0.1485545612963330  0.6977968143514084  0.1219553947524677
  0.1389622455602290  0.6944345713294915  0.6192362879640474
  0.6506977070656065  0.1922617227520640  0.1209305054475521
  0.6515969002208066  0.1937502185566713  0.6220760374919302
  0.6513834681608158  0.7002321755558872  0.1222680009364527
  0.6427067621192792  0.7125556906150888  0.6095221051109423
  0.3026258118909632  0.4555666996412729  0.4569349561062507
  0.3102808980883162  0.4603576780329718  0.9540121889575318
  0.3002550778794640  0.9554978096354129  0.4574011322283367
  0.2970336720835946  0.9580181025808634  0.9568207596118167
  0.8065191983705978  0.4521568803870391  0.4554293539859778
  0.8019113372780984  0.4438165041114596  0.9530751306430030
  0.7970151203855145  0.9379409251955357  0.4528829142635262
  0.7915506377849827  0.9441474293317844  0.9441514411943976
  0.3494017080139913  0.0461275501649964  0.2109672623081940
  0.3417394209638679  0.0392355364033154  0.7091499941823819
  0.3460338060318203  0.5452330102274060  0.2102615398083068
  0.3702733725380198  0.5730044234734012  0.7147213765122553
  0.8521386035402256  0.0431875158095474  0.2116573371435593
  0.8574447088896511  0.0564221661852512  0.7240230120780802
  0.8438516659673899  0.5493048055848090  0.2118054629344637
  0.8391910022921099  0.5407621846116291  0.7103402833707976
  0.1988176448278015  0.1543139487271478  0.3769302621341728
  0.1969441236333360  0.1554954779682921  0.8762238858907290
  0.2025038061690805  0.6558153601822412  0.3787887873026127
  0.2051965138575129  0.6616496185934979  0.8762083397553845
  0.7003147211924128  0.1478392703272056  0.3785093162933922
  0.7018116459557002  0.1366184365319378  0.8778254238453169
  0.6980334912140580  0.6491657272353570  0.3904606448029440
  0.6910854323613134  0.6412419477511025  0.8791790219705683
  0.4579297475433559  0.3043948007051514  0.0437974348189845
  0.4564783186800000  0.3012561958456719  0.5438539337456585
  0.4532574727934853  0.8058242972957483  0.0449319424205765
  0.4471145003954594  0.8046003707712586  0.5587363246992481
  0.9544330093230411  0.2953371144631204  0.0432193681202760
  0.9547463276059653  0.2960144691564205  0.5444427954872574
  0.9515462732870956  0.8033228026741377  0.0430968854843197
  0.9289134558834581  0.7936266725707263  0.5487965541477078
