Ge Si O 
 1.0000000000000000
     9.9769194903630041    0.0044580406310563    0.0033452962618259
    -4.9845989681691147    8.6335784700033713   -0.0000000042165699
     0.0036679645534961    0.0021176787453743   11.2521134298059788
 Ge  Si  O  
  21   3  48
Direct
  0.0008308624132462  0.2240433927407581  0.1669872829652338
  0.0145981629238549  0.2344932450048983  0.6680920106904907
 -0.0008308604415056  0.7232125394082630  0.1663460511524857
 -0.0145981675103941  0.7198950757689501  0.6652413195040998
  0.5000000027423929  0.2286783092772836  0.1666666648466654
  0.4999999987735746  0.2202213684422880  0.6666666685564029
  0.4999999963688116  0.7253973848750744  0.1666666656196494
  0.2764382378936585  0.2772759497824516 -0.0049873991220373
  0.2831463122023516  0.2777416410540879  0.4970410988985184
  0.2742763000262907  0.7708045655252300 -0.0014115191584787
  0.2695552796235670  0.7735891920248296  0.5016393802053444
  0.7738820074188681  0.2740689022344224  0.0015287474966620
  0.7793647966514065  0.2746911735506146  0.5027312892825513
  0.7743971338273826  0.7744676589035330  0.0007753199553489
  0.2261180048684671  0.0001868965426042  0.3318045858872506
  0.2206352028537312 -0.0046736250456981  0.8306020455227074
  0.2256028650436743  0.5000705225024004  0.3325580104699992
  0.7257237027793738 -0.0034717382089953  0.3347448559604873
  0.7304447276808054  0.0040339180589798  0.8316939490574523
  0.7235617603692457  0.5008377165294424  0.3383207323422102
  0.7168536905147371  0.4945953249529245  0.8362922363042317
  0.5000000012028191  0.7318545309939292  0.6666666671029881
  0.7608072721556041  0.7694034970394109  0.5029593188248261
  0.2391927242627629  0.5085962221492639  0.8303740166370484
  0.0459283867452537  0.3476513152256946  0.2893582465349711
  0.0753040734717757  0.3688066248729543  0.7831592539775675
  0.0475675173878078  0.8463760625011234  0.2892181345651733
  0.0398703765600619  0.8444632495304902  0.7876978324425074
  0.5445343971055435  0.3503880769140726  0.2904934729971230
  0.5390091550445822  0.3405445433984859  0.7910127215717266
  0.5447259621474435  0.8478958061165083  0.2895599334522912
  0.5587295811006149  0.8546889346008086  0.7758228437210214
  0.1558928504779631  0.2036799263682783  0.1195550203829105
  0.1633014898570536  0.2032887566963965  0.6216628777887550
  0.1476979434679835  0.6912618092587739  0.1193413180236962
  0.1350384039888888  0.6925772573254630  0.6164887374599275
  0.6515580152874257  0.1990365081840763  0.1246666448655124
  0.6550777139321841  0.1957618270924023  0.6250998775358794
  0.6537006919916907  0.6991037505321557  0.1252586438464013
  0.6374045295928346  0.7082528761758373  0.6122165245643533
  0.3063622058050285  0.4562092681460874  0.4543431355532004
  0.3045844824669192  0.4533745377387897  0.9414961323789973
  0.3020501730406017  0.9544589100049888  0.4555420780486131
  0.2981105880193024  0.9478769072139676  0.9521540433799199
  0.8047445589841654  0.4528849449243580  0.4570588030471819
  0.7995091331193313  0.4531727745145590  0.9577994360971970
  0.7914880415066382  0.9360774585963546  0.4554771780153513
  0.7989901309888614  0.9527512803829138  0.9567317355692444
  0.3484419935741951  0.0474784913497176  0.2086666906442361
  0.3449222756091349  0.0406841076181601  0.7082334550563888
  0.3462993000557012  0.5454030528632022  0.2080746896919091
  0.3625954714479760  0.5708483449730311  0.7211168117679533
  0.8523020537494750  0.0435638549271334  0.2139920166978741
  0.8649615988914251  0.0575388563680253  0.7168445960627777
  0.8441071497563274  0.5477870813466149  0.2137783163811307
  0.8366985043773174  0.5399872536180561  0.7116704579862324
  0.2004908722469591  0.1536636388865890  0.3755338955198229
  0.1952554334061596  0.1481403788624219  0.8762745291012826
  0.2010098670438137  0.6537611409104432  0.3766015981577072
  0.2085119597611080  0.6445894162213011  0.8778561608482007
  0.7018894077653083  0.1497663139449509  0.3811792903259482
  0.6979498359834709  0.1524087414374682  0.8777912539267123
  0.6954155151879854  0.6487900537018416  0.3918372052936774
  0.6936377947020751  0.6498470534280887  0.8789901961139206
  0.4554656014962361  0.3058536689226899  0.0428398513743929
  0.4609908501577992  0.3015353900167830  0.5423206098739907
  0.4552740352377095  0.8031698458020514  0.0437734006787254
  0.4412704184087883  0.7959593466106570  0.5575104883301848
  0.9524324879014613  0.2988085380571460  0.0441151959124814
  0.9601296199186523  0.3045928742752745  0.5456355029442825
  0.9540716136979478  0.8017229357939339  0.0439750864879412
  0.9246959228871234  0.7935025496394000  0.5501740759987805
