Ge Si O 
 1.0000000000000000
     9.9948326230449709    0.0154979899909930    0.0015048298221011
    -4.9839949957088727    8.6047310249081352    0.0051957843393218
     0.0016877382260546    0.0075617481623874   11.2598078456010722
 Ge  Si  O  
  21   3  48
Direct
 -0.0003384429277737  0.2250685387930913  0.1681329460950834
  0.0017599115943903  0.2245785340234723  0.6713265679901551
  0.0002987288844735  0.7276554682094191  0.1663109504375317
 -0.0077133458676060  0.7250675673398317  0.6678826741829371
  0.5016136169970629  0.2270304989147396  0.1666208712222799
  0.5033508303016232  0.2268053985565493  0.6668154088300540
  0.4973750010645416  0.7216950975768412  0.1642485433496264
  0.5035602884023299  0.7302795248112955  0.6635936261072936
  0.2768176846662663  0.2809240949183281  0.0017481603075043
  0.2761994146905636  0.2788224209055415  0.5028583091573116
  0.2756913642047802  0.7804669972581491  0.0004961004378219
  0.2698136503010774  0.7771092815018319  0.5014133743442213
  0.7732035454405634  0.2674565561051359 -0.0038739854722085
  0.7767941804084572  0.2705356997367995  0.4996864920455228
  0.7714725707005237  0.7662038368882353 -0.0043877123050927
  0.2239598499383084  0.0046783717983584  0.3330283412931504
  0.2236355200539432  0.0049594598769218  0.8329957219893868
  0.2232816370318420  0.5014382889500876  0.3343353795187438
  0.2286454823694996  0.5068765662968904  0.8332873670451660
  0.7254786053069691 -0.0072011790296074  0.3335756889027336
  0.7283529975561078  0.5003956797378721  0.3355684211645081
  0.7713068492284991  0.7704950691149222  0.4988206941830269
  0.7285770316851223 -0.0045315206108062  0.8325306045059608
  0.7262050470966082  0.4939067189305453  0.8328042462475335
  0.0437198452166252  0.3485193711638176  0.2906121887294807
  0.0494156932462524  0.3553217292265350  0.7889954794600462
  0.0454423957671235  0.8524578096392039  0.2877722290752010
  0.0441113573463647  0.8557804338802929  0.7862504094711245
  0.5494174457230760  0.3486078117505166  0.2907603983047040
  0.5614134676971899  0.3524247530012439  0.7882197220792964
  0.5462133646659373  0.8423494894573575  0.2886241455159670
  0.5649683223533820  0.8551985611137487  0.7852052488654705
  0.1525316490794469  0.1995735715106003  0.1232701742578778
  0.1533978392214037  0.1972956856839654  0.6255815083971000
  0.1512000708969030  0.6988600751464505  0.1218311317413702
  0.1416103410103232  0.6954394651003535  0.6206585909459080
  0.6498736629062953  0.1959724263864180  0.1189627556460753
  0.6518659125616389  0.1954195636866113  0.6211439402410690
  0.6475499413548259  0.6926078283853004  0.1181082742452902
  0.6504406148506132  0.7027171945559230  0.6090389050348878
  0.3004056246605994  0.4580586910299713  0.4587452321140949
  0.3029719116049624  0.4609726310796352  0.9580405445678983
  0.2947091242667282  0.9566636783901783  0.4585149570316480
  0.2982570995766263  0.9590974789864789  0.9576858427021782
  0.8072224969246868  0.4516499812963230  0.4554483247665586
  0.7951489492732734  0.4411833822279840  0.9427140296154525
  0.7974681468025546  0.9372276758848378  0.4538274527255425
  0.7934866735193785  0.9402332409371978  0.9434752510243322
  0.3491979628151014  0.0478819906713480  0.2122896306377033
  0.3502035262680563  0.0489422183571280  0.7130908814003268
  0.3446215117472750  0.5432336057572524  0.2108687662228848
  0.3541305476289501  0.5515691952846682  0.7123958993110222
  0.8494861409173188  0.0429816930247058  0.2110981759750538
  0.8496195558644323  0.0499782811565705  0.7221174389434573
  0.8476395390406417  0.5481267188870282  0.2105178493972995
  0.8440329080649773  0.5487817196083075  0.7203695568238230
  0.2001627588779429  0.1592262540919671  0.3778467943903485
  0.2013878578561790  0.1608642715143215  0.8769600649051451
  0.1981752363230114  0.6559712153101848  0.3769757583586478
  0.2034290688019210  0.6616106240936075  0.8749328120432655
  0.6991627384281714  0.1454776568796806  0.3783881319148575
  0.7022417623725614  0.1345221890270989  0.8796225748948776
  0.7060723839183213  0.6531157333531280  0.3859104178525913
  0.7003428424321341  0.6337289523004405  0.8787546865521776
  0.4553480315983335  0.3071971316795974  0.0460452538834839
  0.4560410783888781  0.3076643452333124  0.5470253926784302
  0.4537196330991241  0.8051575812161438  0.0444183614059580
  0.4499692350044295  0.8100974683911432  0.5475414037030805
  0.9526962808937239  0.3007669520132374  0.0449002274905861
  0.9536889826753098  0.2942866759908619  0.5452669672507796
  0.9521956570515508  0.8014145613214965  0.0426213546471781
  0.9342507902763960  0.7930534647100372  0.5467360711771850
