Ge Si O 
 1.0000000000000000
     9.9808469986727495    0.0003634363727720    0.0032203925044662
    -4.9901087539901052    8.6431216795034089   -0.0000000171074819
     0.0035396299429975    0.0020435635134923   11.2467462909761178
 Ge  Si  O  
  21   3  48
Direct
  0.0010298558066966  0.2241272011063358  0.1635121878834517
 -0.0049056908713744  0.2249147342956058  0.6624000328835442
 -0.0010298544071745  0.7230973490985909  0.1698211468412541
  0.0049056850895963  0.7298204274582134  0.6709332955301405
  0.5000000010603265  0.2228645395694019  0.1666666659916702
  0.5000000032023332  0.2253346444900042  0.6666666689350172
  0.4999999984118814  0.7311278407905469  0.1666666608687417
  0.2768847724430919  0.2711635024967072 -0.0045488689429212
  0.2743455513673125  0.2758757111204167  0.4968690087712891
  0.2737621172215086  0.7766039509119301 -0.0019418159643554
  0.2781429972516479  0.7751478241017585  0.5018753501790392
  0.7733092470262232  0.2716406133395461 -0.0009852870787500
  0.7751449806665166  0.7770338862911508  0.0030938746594709
  0.7719380833017373  0.7739369225077165  0.5046611807313170
  0.2266907638555092 -0.0016686351398065  0.3343186202362184
  0.2248550266138757  0.5018888985598147  0.3302394589224610
  0.2280619095245739  0.5019988283282076  0.8286721541824564
  0.7262378741283810  0.0028418342859112  0.3352751458601390
  0.7218570061376004 -0.0029951705868130  0.8314579824556000
  0.7231152248900755  0.4942787298990838  0.3378822034653751
  0.7256544546252575  0.5015301676127427  0.8364643254285896
  0.4999999967568932  0.7273660005737691  0.6666666687267510
  0.7688571855003995  0.2702674158301959  0.5009743683211236
  0.2311428142654087  0.0014102278333994  0.8323589683386329
  0.0470449009768695  0.3488348737537965  0.2852417104986623
  0.0486553583227781  0.3531781240792222  0.7820563019997271
  0.0465380429051383  0.8451144892414986  0.2933248178322131
  0.0653589540639352  0.8600673330873172  0.7891918396566694
  0.5442080878852668  0.3451772017717438  0.2896007896151150
  0.5489092445880466  0.3504707568621658  0.7880979746764551
  0.5452533217348816  0.8528546433247924  0.2906059787690989
  0.5479255335163338  0.8444243289213613  0.7799440294209742
  0.1510892773996369  0.1947500152756179  0.1170546114817963
  0.1471972917125879  0.1993870257346898  0.6168953441739659
  0.1525993986514761  0.7003084716351441  0.1219862821590650
  0.1513321321177579  0.6968473460808211  0.6221344258575472
  0.6526932630070765  0.1954759525118429  0.1235684522301283
  0.6505592735749075  0.2011564875220374  0.6137009950216532
  0.6524053325074565  0.7027192283479101  0.1260779081262823
  0.6423821603759371  0.7042175228846568  0.6237492284085160
  0.3014761936980773  0.4548163729598080  0.4524616298126257
  0.3046628214823240  0.4491465232490928  0.9476715186859745
  0.3060576039402171  0.9552393181370605  0.4577748236443552
  0.2976982184201444  0.9513129665838013  0.9457935056669317
  0.7929633424030283  0.4359849248163909  0.4576051796366379
  0.8002049525902638  0.4519146930521951  0.9586199160994818
  0.8034767290019713  0.9526010412909262  0.4550551567341626
  0.7986690100880954  0.9538768841523578  0.9559325533888422
  0.3473067501694709  0.0427826853779271  0.2097648862155348
  0.3494407310739541  0.0505972161711074  0.7196323453280596
  0.3475946604459049  0.5503138942151495  0.2072554168408348
  0.3576178293016420  0.5618353579245562  0.7095841075137312
  0.8474005973799483  0.0477090699898555  0.2113470515858681
  0.8486678664757054  0.0455152089994793  0.7111989106162780
  0.8489107185456604  0.5436607408046288  0.2162787223565503
  0.8528027047497677  0.5521897322752612  0.7164379867955576
  0.1997950544860624  0.1517097329394133  0.3747134191831511
  0.2070366523427589  0.1430215753471868  0.8757281570874692
  0.2013309857690532  0.6552078617139200  0.3774007793292618
  0.1965232569098881  0.6491242947148612  0.8782781770367600
  0.7023017754889532  0.1536147452538277  0.3875398328735933
  0.6939424102338582  0.1491817183499068  0.8755585106694471
  0.6953371737009435  0.6444837024210237  0.3856618123939647
  0.6985238250886086  0.6533401932466660  0.8808717009873935
  0.4557919045632218  0.3009690992690970  0.0437325398537360
  0.4510907571087389  0.3015615007215853  0.5452353581284090
  0.4547466731350450  0.8076013132860479  0.0427273410668601
  0.4520744716551910  0.7964987909696318  0.5533893002359782
  0.9534619663587991  0.2985764587564720  0.0400085220770073
  0.9346410431198584  0.2947083761661961  0.5441414931185193
  0.9529551014459808  0.8017899851543697  0.0480916301274814
  0.9513446416170667  0.8045227758797482  0.5512770277550961
