Ge Si O 
 1.0000000000000000
     9.9690063845188739   -0.0000001266525449    0.0000000111404101
    -4.9845033019437475    8.6334127432838201   -0.0000000102954556
     0.0000000253582385   -0.0000000137248972   11.2595132815651411
 Ge  Si  O  
  21   3  48
Direct
  0.0024332668719949  0.2260590267027492  0.1704118360444297
  0.0070355729141754  0.2271614632333621  0.6679621823568608
 -0.0079005733605026  0.7227422981220988  0.1657710012653987
 -0.0059631424926718  0.7261344173642569  0.6661894311544456
  0.4965495868928973  0.2193393035127129  0.1654148813771328
  0.5026130667427235  0.2239201932655052  0.6665617986242393
  0.5066417315860094  0.7347238196921330  0.1650377369996036
  0.2760798039625022  0.2786928808918698 -0.0001048690248913
  0.2806606969751296  0.2772102792669238  0.4987482159964834
  0.2728385350681994  0.7798741074042012  0.0012955078553139
  0.2739409814128529  0.7763742473154580  0.5037451698962676
  0.7738655837200931  0.2679024488668995 -0.0004772389369607
  0.7772577088622108  0.2693571316232446  0.4991043380286835
  0.7652761822208722  0.7719179140549833  0.4983710713751979
  0.2213071159511119 -0.0026130797322343  0.3332284574686828
  0.2227897268752784  0.0034504199959537  0.8320815498619042
  0.2320975459101858  0.5059631240375748  0.3328560899914383
  0.2306428656251892  0.5079005738758379  0.8324376732805079
  0.7280820943166505 -0.0066417264242496  0.8317044084387860
  0.7201258880932171  0.4929644243864069  0.3346288368074314
  0.7236257545487209  0.4975667355470846  0.8370785088206634
  0.4986916059093801  0.7280013520751568  0.6663134363949824
  0.7719986403485336  0.7706902501737726 -0.0003532363922798
  0.7293097480180787  0.0013083793504381  0.3329800916342995
  0.0515601479520559  0.3573314512254893  0.2874801210091190
  0.0521324157584755  0.3552671378322713  0.7870047483146960
  0.0406107820789461  0.8467105756672064  0.2885127283011157
  0.0435719429403638  0.8506872340317101  0.7881618115680298
  0.5419443768471820  0.3384180375124843  0.2906711270740932
  0.5454126275233051  0.3449295628145360  0.7907480768075372
  0.5647876864405468  0.8610226832850038  0.2859749161741065
  0.5525682675091049  0.8447005087133211  0.7794153431284234
  0.1550704440505537  0.2004830715136279  0.1240814191110431
  0.1615819622184267  0.2035263495055368  0.6240044679877813
  0.1447328677932005  0.6968652816346949  0.1203380846917140
  0.1426685413406733  0.6942286973920681  0.6208134650169136
  0.6493127754304383  0.1928847161443785  0.1214951413517244
  0.6532894168402986  0.1939002063466529  0.6218460726403702
  0.6552994983454372  0.7078677650818169  0.1127486757360776
  0.6389773121110405  0.7037650140791391  0.6193082500527217
  0.3071152839033529  0.4564280663413507  0.4548284804750916
  0.3060997866289875  0.4593892128551381  0.9551793970216257
  0.2995169350080922  0.9545873905314136  0.4574147485561749
  0.2964736517116193  0.9580556127214542  0.9573377955730150
  0.8031347248687865  0.4478676036255229  0.4536714217450746
  0.8057712885853521  0.4484398372675907  0.9541467925481817
  0.7921322380936906  0.9474317413436435  0.4460820130550520
  0.7962349888666307  0.9352122976769717  0.9526415826108503
  0.3431966055827748  0.0401527978263558  0.2098134138907893
  0.3479889606821633  0.0455405239867641  0.7109993425888020
  0.3577306657698873  0.5549767303482331  0.2116100196199888
  0.3578861638209636  0.5627981004018752  0.7120540532780568
  0.8507481736264563  0.0524498420095381  0.2228930140892981
  0.8581416334344312  0.0463459034268313  0.7131341591551963
  0.8413853191872451  0.5428276597569623  0.2105241374229831
  0.8406380356503388  0.5479514823415107  0.7106740251928895
  0.1975515648305039  0.1520110325060363  0.3776660059212473
  0.1969561927028340  0.1568033985470464  0.8764800777579197
  0.2073134504499615  0.6593619578343691  0.3773406794993834
  0.2014423498252525  0.6586146884576091  0.8771908034633309
  0.7049119407876439  0.1421138240990710  0.3787207077893486
  0.6972460709004047  0.1422693434093630  0.8782766833950857
  0.6882042774126446  0.6418583649110727  0.3798008265059407
  0.7017016661016771  0.6492518318883995  0.8895596830142996
  0.4544594714424035  0.3024484287694651  0.0443326728492133
  0.4598472147062894  0.3030438043592384  0.5431467395709623
  0.4536540890395152  0.8117957213851873  0.0464674936013769
  0.4475501769845284  0.7982983341864839  0.5562263464364021
  0.9520485059899311  0.2926865443613217  0.0440073558914201
  0.9571723592029866  0.2985576554299271  0.5438574683176831
  0.9372018841668176  0.7950880556058050  0.0453873839668525
  0.9450232778819880  0.8027539344046274  0.5449433469121789
