Ge Si O 
 1.0000000000000000
    10.0212992695794831   -0.0000001305138034    0.0000000170562835
    -5.0106497424305321    8.5976083797456937    0.0112189071313883
     0.0000000315317615    0.0142403341977132   11.2558263995921024
 Ge  Si  O  
  21   3  48
Direct
 -0.0008456101217925  0.2276214944752752  0.1672114749207285
  0.0049640303945092  0.2314097731081080  0.6715184980464135
 -0.0008017919107802  0.7243656067806750  0.1652012733011683
 -0.0052634408429146  0.7214816070703196  0.6682985145625177
  0.4965666509861805  0.2244346811046527  0.1641739922953796
  0.5022934932474239  0.2266354723109592  0.6665005217459715
  0.5011800160079335  0.7237582451583758  0.1663267532114321
  0.5016693236399425  0.7292674932604886  0.6695099317245780
  0.2732549461501793  0.2785183935674325 -0.0016318497305643
  0.2748326010915121  0.2756343971221907  0.5014653896135525
  0.2756580253876750  0.7733645308982576  0.0001661388440497
  0.2721319678058019  0.7755653200706099  0.5024926696684915
  0.7724018321627619  0.2707325156363455 -0.0028432695990416
  0.7774217633873025  0.2762417488587172  0.5003399131606162
  0.7735542526284854  0.7685902253835970 -0.0048518342195814
  0.7715329009186354  0.7723785068912162  0.4994551890647042
  0.2227275576797955  0.0000000042239299  0.3333333347530849
  0.2241380602638350 -0.0000000006619559  0.8333333345709883
  0.2255235406610423  0.5013118951815161  0.3345851704275414
  0.7257620174882957  0.0000000012597926  0.3333333367456378
  0.7242116543820923  0.4986881089993322  0.3320815026829357
  0.2295024426173846  0.5050457219377533  0.8347178848447292
  0.7315885701557941  0.0000000000060955  0.8333333358953264
  0.7244567173679365  0.4949542762669727  0.8319487826286067
  0.0456455696350208  0.3482240391142059  0.2916310117630339
  0.0650672089005688  0.3637306109620069  0.7887461846739027
  0.0440682315977908  0.8460116814101566  0.2890050073144310
  0.0450400177135533  0.8474695266199026  0.7895102254742300
  0.5451737311250380  0.3449095245709737  0.2889487206919570
  0.5592232333384983  0.3527745039559221  0.7878057248359797
  0.5474412297516784  0.8451740449381252  0.2903039824934748
  0.5667934224077917  0.8606699040073371  0.7868837476842755
  0.1502115034921181  0.2013285556735494  0.1209028479952883
  0.1508360935112135  0.1973542092016675  0.6236021897555921
  0.1486956056367688  0.6942669894506228  0.1205236327493930
  0.1451280412282738  0.6934852315694066  0.6226392132027597
  0.6450663707068867  0.1942421574464019  0.1172633006249897
  0.6509980119678770  0.1964072492102392  0.6206419034645912
  0.6497806068754317  0.6945097635535484  0.1178546108420482
  0.6452845106607910  0.6931958748656715  0.6200512143421878
  0.3012831368712304  0.4561781263190603  0.4586652182597307
  0.2952364242539076  0.4538064361239378  0.9479548155920990
  0.2991076081225351  0.9553895155731076  0.4571636266440356
  0.3013118172098588  0.9523064923251534  0.9548289114546216
  0.8029988669076662  0.4558444154412414  0.4555158771109069
  0.7929954511923718  0.4435280617822639  0.9428449730523745
  0.8011495297737888  0.9542728696976189  0.4572324736427610
  0.7964759513147277  0.9434061204835222  0.9434475082035528
  0.3437180969577554  0.0446104845194519  0.2095030434366756
  0.3490053202849262  0.0476935169193026  0.7118377543006652
  0.3471544530810027  0.5441555758520736  0.2111507992818424
  0.3494674033352247  0.5564719477595437  0.7238217011061465
  0.8468766586835468  0.0457271278014479  0.2094341978630684
  0.8530698411410568  0.0565938818456085  0.7232191699774901
  0.8451050262655186  0.5438218733829234  0.2080014600326714
  0.8414299954990817  0.5461935704034505  0.7187118589708079
  0.1980565589374686  0.1539883304525817  0.3776616516293659
  0.1975704810460287  0.1525304633997417  0.8771564430380532
  0.2002642025289924  0.6550904825416832  0.3777179382654861
  0.2064487286597809  0.6472254912629140  0.8788609388489566
  0.7022671852276504  0.1548259561861514  0.3763626815191310
  0.7061235290431076  0.1393301015861303  0.8797829168630072
  0.6974215405572138  0.6517759645072897  0.3750356526320411
  0.7013365963132203  0.6362693856892041  0.8779204795817742
  0.4516428045815156  0.3065147629448431  0.0440274502279810
  0.4544286129620751  0.3057330097045569  0.5461430310607974
  0.4545907649705948  0.8035927392981045  0.0460247582378241
  0.4508242079462557  0.8057578333260514  0.5494033600238113
  0.9520886386536412  0.3068041349120991  0.0466154517452175
  0.9552708288185494  0.3054902191721239  0.5488120576227362
  0.9534818823231518  0.8026457896258298  0.0430644741859660
  0.9488829464368479  0.7986714336984753  0.5457638185205852
