Ge Si O 
 1.0000000000000000
    10.0193871617511956    0.0005123097918001   -0.0020887300395829
    -5.0092521436689665    8.5999295359689185    0.0109632390647549
    -0.0022887455504392    0.0126504801795786   11.2537732701561186
 Ge  Si  O  
  21   3  48
Direct
  0.0006918913046952  0.2243561518983484  0.1680134078614050
  0.0032911473422965  0.2343480289419501  0.6700101057096167
 -0.0036712565601080  0.7259724994526983  0.1671444139437737
 -0.0023200074123099  0.7198269897115119  0.6661282887715200
  0.5036137387021951  0.2307623899143379  0.1654687100215253
  0.4954864189893100  0.2202092149673350  0.6654801010351371
  0.4979417080186384  0.7219476388398701  0.1667961947230419
  0.5049545179285996  0.7308713324507421  0.6697889598045479
  0.2745635641496292  0.2766674456797273 -0.0016907754617862
  0.2734563003532310  0.2773574043060662  0.5015105089283832
  0.2715080147956724  0.7711014860989922  0.0016093435656779
  0.2763886176156229  0.7777146264475190  0.5013262640552012
  0.7765671366937990  0.2723415321244378 -0.0010670981570951
  0.7729435521034705  0.2748465671916689  0.4979346566454655
  0.7722819977080735  0.7745139510881530 -0.0037773307780066
  0.7726651276428825  0.7668876969302419  0.4985135712939479
  0.2265659355093742  0.0041679781255198  0.3333408674466309
  0.2205730172608641 -0.0042038779135446  0.8332729901726863
  0.2233979688503235  0.5008778907615530  0.3344122586350285
  0.7252884115558473 -0.0041445127611974  0.3333669053266214
  0.7216449555211886  0.4951620699641210  0.8320223391817424
  0.2311249953742730  0.5052208094340084  0.8346790632374763
  0.7323146236777894  0.0045018170648280  0.8333392975796957
  0.7267235893755314  0.4991789048353230  0.3321065534743494
  0.0443890170792224  0.3458710860767726  0.2919380444953644
  0.0662175785131349  0.3663013455162326  0.7873057600675549
  0.0475823512270302  0.8532653443289884  0.2875676332292568
  0.0418237070172990  0.8406873445522108  0.7903890039733945
  0.5621042909485876  0.3574894155402988  0.2864940122420014
  0.5427129023423514  0.3394750341116367  0.7909659706924760
  0.5460771792875910  0.8410563449502833  0.2920931058361287
  0.5685313105786982  0.8637433837262245  0.7865059547622005
  0.1529176201350564  0.1996001574479475  0.1218772797974089
  0.1477002303812792  0.1981638023085263  0.6222769445597680
  0.1427063975921540  0.6916020918874494  0.1209112598812431
  0.1505027604683946  0.6951369283009659  0.6220030422065755
  0.6487317538068684  0.1952574855182838  0.1185366622874125
  0.6477907963644688  0.1961675436011804  0.6191446379165445
  0.6494164039292701  0.6975643393572616  0.1189519661953967
  0.6462170877610423  0.6911528649273639  0.6195031565165311
  0.2998233618905274  0.4579467630045245  0.4593736938488389
  0.2954965481641632  0.4513119657050462  0.9471736525685498
  0.3020659919443711  0.9572986826273654  0.4566987333370162
  0.2981580831493538  0.9500785491836985  0.9555155940975421
  0.7946723223583309  0.4488346648953550  0.4443450988516155
  0.8021092996251648  0.4513274919614302  0.9536120723869468
  0.8018399444908260  0.9478708700437044  0.4550226357553743
  0.7971813123681888  0.9509097021903784  0.9456692828688952
  0.3514840390022415  0.0518687961158576  0.2120940737008343
  0.3419989325465555  0.0402887293932514  0.7095405826700060
  0.3440210758265344  0.5419146408065605  0.2104781042752747
  0.3526007284544662  0.5585968646311290  0.7247346100667553
  0.8471756716422131  0.0429785260993344  0.2097154515936672
  0.8529823915063131  0.0594462520442400  0.7228900735014393
  0.8441190686481693  0.5511714862834813  0.2193257072717689
  0.8423262349939201  0.5396391860823448  0.7076850634758817
  0.2003803601842730  0.1574862761413794  0.3766797926846476
  0.1959139462459191  0.1492716883484831  0.8778732042904491
  0.2012561898531806  0.6568732842421116  0.3766991640898085
  0.2062849957311765  0.6457946985830495  0.8799381362240295
  0.6988663238054861  0.1481846391653606  0.3770957494409221
  0.7079475957615065  0.1454778194913778  0.8783042079123639
  0.7020279755670072  0.6398980327933562  0.3778167280480220
  0.6950029511410011  0.6478254878258485  0.8753652143185814
  0.4548096210229330  0.3096126234985732  0.0451043380351677
  0.4512726822072419  0.3032928560942686  0.5458751604942524
  0.4509003066317019  0.8033111419111365  0.0480159108540166
  0.4547149891380200  0.8067898331070364  0.5486539388550572
  0.9551194303649236  0.3031217677282089  0.0463077638219499
  0.9518454588359009  0.3081378061839387  0.5480338084675745
  0.9499528368821882  0.8020080369674278  0.0438114038380342
  0.9522319760808640  0.7984102891411027  0.5443570166783628
