Ge Si O 
 1.0000000000000000
     9.9969286096873660    0.0107094727393246    0.0057390352623611
    -4.9891898143953517    8.6125892956819268   -0.0025810521038857
     0.0062976727238919    0.0003959007982699   11.2525709938713518
 Ge  Si  O  
  21   3  48
Direct
  0.0081345772828609  0.2298436301248583  0.1709046189574621
  0.0016126621046784  0.2265432328301544  0.6719039418560706
 -0.0051755522412204  0.7233613865125721  0.1633661753197370
 -0.0074867155935945  0.7216069070673465  0.6631014009934946
  0.5016716585368320  0.2257280817413054  0.1662650546506746
  0.4945927718323826  0.2215867819728163  0.6640933651978670
  0.4966789663191518  0.7253524024685438  0.1692149533161065
  0.5083587661503473  0.7338307038109562  0.6665231515008005
  0.2785562529734908  0.2772601497950759 -0.0009559970465357
  0.2719629599911436  0.2752733619619090  0.4981005755945113
  0.2742079135236990  0.7788955130547679 -0.0001147759425661
  0.2732399140182329  0.7721298322541124  0.4986744995132412
  0.7774820958799878  0.2707058648844474  0.0009624449045992
  0.7756362495649387  0.2750115997065763  0.5023352498823843
  0.7679110875341508  0.7709658556082600 -0.0020017922810677
  0.2224930174109718 -0.0013069307008510  0.3304454001086543
  0.2194434989737476 -0.0008411296200327  0.8306307939344612
  0.2329788672490419  0.5066515082956305  0.8334794570807296
  0.7296264867914021 -0.0012540064530397  0.3359712760843155
  0.7240953570392131  0.5007455391884458  0.3356880271675360
  0.7206594741691310  0.4932157134470854  0.8331667423417153
  0.7730668481958558  0.7728642328651356  0.4993947818654061
  0.2286518338100459  0.5012462977236916  0.3343875688007353
  0.7300900177075328  0.0009720109742710  0.8350113220019326
  0.0635193145896891  0.3594087140760436  0.2899681033740328
  0.0528785266945610  0.3561083731760218  0.7905282222404585
  0.0438313001381616  0.8460189346827059  0.2865657431469938
  0.0406078654513154  0.8466868503908637  0.7854652223503051
  0.5455732690544460  0.3478389657501866  0.2902100044568484
  0.5413214835257614  0.3403603077773056  0.7898188502545574
  0.5492796486684439  0.8517887026486388  0.2899645696506111
  0.5663388490047416  0.8607159020825244  0.7872360130211209
  0.1574098241251731  0.2004967410570652  0.1228133459859251
  0.1520717308853994  0.1997057472085438  0.6228620287498777
  0.1457743877795851  0.6952037671016335  0.1185954910174340
  0.1419444069602037  0.6920459882478056  0.6161577119207788
  0.6513709109154576  0.1946389824906858  0.1221102929773729
  0.6476143479769543  0.1955835661913846  0.6217286889218415
  0.6471393461016814  0.6970103738300369  0.1224132092469626
  0.6559979621900325  0.7068312899625779  0.6122958658447241
  0.2952154074585833  0.4508788366556797  0.4476458892622963
  0.3059813916300536  0.4584761720302973  0.9577042024592618
  0.2980404526256989  0.9499546335696673  0.4522067611223996
  0.2978949726344198  0.9569821142586581  0.9546977522312692
  0.8047783741537736  0.4544461844207233  0.4556411082996817
  0.8020869966744590  0.4482674521455346  0.9532916213999624
  0.7981204725512493  0.9395428128437915  0.4561691714899452
  0.7924833300412121  0.9471195431677328  0.9485100505665003
  0.3475293269983888  0.0461683738628875  0.2089405923912075
  0.3406976268076435  0.0420241712578492  0.7069293942561247
  0.3461228423960119  0.5503163148633099  0.2215918328337260
  0.3590128162076939  0.5533904529778444  0.7125813706909709
  0.8580875525658991  0.0496073415074259  0.2164928177225920
  0.8510254556021674  0.0521699090271497  0.7246075163517821
  0.8417361848534145  0.5456473181747606  0.2097028646674029
  0.8422882378111836  0.5417141999526992  0.7094011182247745
  0.1937644372483312  0.1492437965932599  0.3770795520995264
  0.1971248063946482  0.1547338934035849  0.8759301132709234
  0.2067663406324094  0.6443009785381947  0.3782672389276899
  0.2071015650050646  0.6610284516371970  0.8736561027848233
  0.7038502252279624  0.1518851578687253  0.3794884474204099
  0.7070814095976892  0.1427334710705451  0.8807317439723371
  0.7033498546941170  0.6543559244411807  0.3869182569015437
  0.6908889860168849  0.6440992955580944  0.8773398006531808
  0.4577417981915315  0.3044098895203685  0.0432471655655458
  0.4514930352332814  0.3040007409874520  0.5430167691384413
  0.4506131642335230  0.8033391114614434  0.0474059681874681
  0.4533838619878412  0.8095931721580067  0.5486881219049322
  0.9570889884754981  0.3039040008633197  0.0491390905762419
  0.9519275575981099  0.2983698597587933  0.5483477359485964
  0.9481172775714023  0.8012499722710049  0.0416397996596958
  0.9374430675928410  0.7952147069628690  0.5437084300565250
