Ge Si O 
 1.0000000000000000
     9.9727609590605493   -0.0022952435859812   -0.0050453071492158
    -4.9883682194433723    8.6401069982017038   -0.0000000127716777
    -0.0055442166778507   -0.0032009909769939   11.2558863878496442
 Ge  Si  O  
  21   3  48
Direct
 -0.0032980663863652  0.2248588018082338  0.1631641308226121
  0.0050746857822066  0.2295734740630800  0.6621639379370852
  0.0032980586239043  0.7281568610453744  0.1701691989658154
 -0.0050746841179749  0.7244987883286859  0.6711693961629881
  0.5000000020826099  0.2251925918642303  0.1666666711588924
  0.4999999955036475  0.2282430788166979  0.6666666661197485
  0.5000000034688432  0.7227790391950809  0.1666666626775387
  0.2757438891180011  0.2791993126902404 -0.0000588522909768
  0.2761991841032292  0.7778144967210062  0.0022761427438607
  0.2714200069677126  0.7676467981578143  0.5056854962142162
  0.7704981281283509  0.2704057037269298 -0.0057438335960956
  0.7743145236569491  0.2771444345122135  0.4974837921977863
  0.7754757929969700  0.7688642433133612 -0.0012374929725102
  0.7707236414957291  0.7775106404546012  0.5012733587448444
  0.2295018696471002 -0.0000924341576757  0.3390771667756640
  0.2256854767726100  0.0028299094243431  0.8358495410293960
  0.2245242120660913  0.4933884523647469  0.3345708186377196
  0.2292763578798580  0.5067869975083190  0.8320599799412300
  0.7238008162786809  0.0016153108018895  0.3310571932833180
  0.7285799980858111 -0.0037731999024206  0.8276478420231945
  0.7242561136785257  0.5034554231905620  0.3333921919288356
  0.4999999999747561  0.7247723972721857  0.6666666708411197
  0.2761806245525462  0.2733971707230847  0.5003738503916088
  0.7238193750077838  0.4972165510555721  0.8329594766835603
  0.0437175577400424  0.3463835141752698  0.2868465104725691
  0.0525623973393401  0.3541720105988216  0.7839502669891805
  0.0487227735944334  0.8503694930047299  0.2935596943195956
  0.0460183199663296  0.8513915033248470  0.7917683223172737
  0.5467326531036932  0.3492694534383725  0.2887320456441906
  0.5585471360749495  0.3577969334261071  0.7858578540864746
  0.5447589057550338  0.8461262369411108  0.2894234892770116
  0.5534858492620303  0.8439588872143405  0.7781635998286061
  0.1510466469307433  0.1998543874562128  0.1214797209083539
  0.1581588281200694  0.2080465418963530  0.6127138672995802
  0.1555462194209423  0.7007032398016855  0.1263108172627572
  0.1431817232414577  0.6921859948399323  0.6254575149868855
  0.6504172286511153  0.1971490404169104  0.1187571780760460
  0.6487218640844060  0.1980964322255057  0.6183133100699264
  0.6512008695202314  0.6946276969566282  0.1210748966174739
  0.6411641151862898  0.7021866324715378  0.6199292431336932
  0.2983164828416205  0.4366871999910823  0.4528111794889828
  0.3040696791574915  0.4588495918839541  0.9554221183711430
  0.3053963255851597  0.9484815928661101  0.4593773339468726
  0.3021296900426816  0.9573348378488280  0.9595389714554324
  0.7993964617373059  0.4570915810590389  0.4573133946475442
  0.7915984391252392  0.4442557735363181  0.9436402419381511
  0.8017424514854788  0.9576086728961468  0.4545256000407309
  0.8025831109614229  0.9462382512799314  0.9497928137644187
  0.3495827784377799  0.0467318056688119  0.2145761597462172
  0.3512781273523525  0.0493745612806518  0.7150200213944267
  0.3487991368260377  0.5434268295675347  0.2122584310827935
  0.3588358845152920  0.5610225175205992  0.7134041011791006
  0.8444537887311562  0.0451570182739411  0.2070225280556781
  0.8568182817802286  0.0490042683094557  0.7078758239951604
  0.8489533470466225  0.5488077358954795  0.2118536180575006
  0.8418411724312184  0.5498877072777699  0.7206194615809034
  0.2084015484784557  0.1526573191255660  0.3896930896440536
  0.2006035400749339  0.1576951153093078  0.8760199427426457
  0.1974168934848722  0.6436551360178372  0.3835405238560962
  0.1982575331818535  0.6558662044119945  0.8788077447232614
  0.6978703106520245  0.1552051461753744  0.3737943587440199
  0.6946036698075707  0.1430852696273798  0.8739560008497835
  0.6959303205127590  0.6547799084100321  0.3779112178335154
  0.7016835169231702  0.6383707255327237  0.8805221394755228
  0.4532673517371613  0.3025368051197207  0.0446012964683133
  0.4414528626976858  0.2992497929006782  0.5474754741264380
  0.4552410989679301  0.8013673319718807  0.0439098351418551
  0.4465141532671228  0.7904730289343612  0.5551697353735763
  0.9512772191925682  0.3016467053861899  0.0397736276419260
  0.9539816813972369  0.3053731784708484  0.5415650062235294
  0.9562824425175510  0.8026659368531764  0.0464868072307924
  0.9474376056891763  0.8016096094277363  0.5493830634670893
