Ge Si O 
 1.0000000000000000
     9.9789865045026662   -0.0000000915025531   -0.0000000156898369
    -4.9894933314949812    8.6420557917009919    0.0000000185417744
     0.0000000001328517    0.0000000035447549   11.2493767494093788
 Ge  Si  O  
  21   3  48
Direct
 -0.0086806794926752  0.2217680176507315  0.1626003063060198
  0.0046765268179236  0.2271159985843026  0.6635709925534515
  0.0086800281804158  0.7304481297286736  0.1707334577786965
 -0.0046758502300175  0.7224399807836588  0.6697615798434963
  0.4999994383974605  0.2267936687163785  0.1666674311420867
  0.5000006883028474  0.2208608662113935  0.6666659447646127
  0.4999998291166283  0.7241409669612814  0.1666664306736710
  0.2728849438612302  0.2775612382912501 -0.0030956672089497
  0.2782311767727893  0.2695506693969277  0.4959339623498659
  0.2791387763583787  0.7791387771980945 -0.0000000040989782
  0.2732069192738527  0.7732069156120631  0.5000000038684905
  0.7758597849693909  0.2758597877633722  0.4999999944658879
  0.7775612374087331  0.7728849437935464  0.0030956687430008
  0.7695506701974880  0.7782311793757919  0.5040660351512309
  0.2241409588877658 -0.0000001680896109  0.8333335748605366
  0.2224399706802712  0.4953241469818254  0.3302384137837154
  0.2304481389146880  0.5086800311311299  0.8292665472076262
  0.7208608737802594  0.0000006891427171  0.3333340593344667
  0.7267936548497712 -0.0000005652640769  0.8333325649896017
  0.7271159912013343  0.5046765304209810  0.3364290122849620
  0.7217680264889659  0.4913193193592807  0.8373996912063512
  0.5000002523617311  0.7337256028021228  0.6666667823699104
  0.7662735346813241  0.2662735296957102  0.0000000043161082
  0.2337256111995007  0.0000002473759120  0.3333332133140571
  0.0418354316144779  0.3464239530736807  0.2847268052821976
  0.0540185725675802  0.3555884452307610  0.7827826979462230
  0.0676624041053509  0.8593495234871328  0.2897375489259441
  0.0442805716252925  0.8457340067252452  0.7927254911397354
  0.5507662481821775  0.3533533249902222  0.2872799988875071
  0.5423749103817932  0.3423613485099516  0.7899799711917046
  0.5416842824153547  0.8453995535398841  0.2907439420427279
  0.5513003282812594  0.8517218245740397  0.7794280468393874
  0.1444114967428440  0.1984290935540952  0.1161166630592591
  0.1535760978350676  0.1954126264005040  0.6180594314005382
  0.1576376621887622  0.7000145411489980  0.1233131176087532
  0.1466478475037455  0.6974121144460768  0.6206134038252249
  0.6482773471430834  0.1995783737949834  0.1127619339633328
  0.6546013913975814  0.1962852372407822  0.6240763600906778
  0.6542657163906711  0.6985466568538728  0.1260587079484816
  0.6406508036886911  0.7083127823726031  0.6230709088628460
  0.3015706238091765  0.4459811012944659  0.4494502274016720
  0.3045877480758479  0.4581647023927887  0.9513926451019536
  0.3004211467965815  0.9486991964412995  0.4460943724812413
  0.3037153979139622  0.9583158880447951  0.9574108099585011
  0.8014520214894231  0.4557173977826870  0.4593910558802566
  0.7916885332884265  0.4323390815758572  0.9564052525964971
  0.7999859930019394  0.9576234160292194  0.4566467749566955
  0.8025874115475120  0.9492353229152071  0.9539464958997191
  0.3517218322784121  0.0513003338152682  0.2205719447227037
  0.3453995433316721  0.0416842723423706  0.7092560617083011
  0.3457340072266277  0.5442805657485902  0.2072745040523480
  0.3593495225241004  0.5676624160441244  0.7102624568231127
  0.8423613485117689  0.0423749226470703  0.2100200369585870
  0.8533533229259996  0.0507662385308303  0.7127199982279134
  0.8555884355081429  0.5540185655611789  0.2172173083263135
  0.8464239605094996  0.5418354377759987  0.7152731876025202
  0.2083127692020192  0.1406507957147933  0.3769290811651895
  0.1985466661153758  0.1542657202577580  0.8739413026747598
  0.1974121135383245  0.6466478499198426  0.3793865985198598
  0.2000145409289588  0.6576376568112384  0.8766868807989301
  0.6962852387192996  0.1546013821538927  0.3759236389121759
  0.6995783726936262  0.1482773522505727  0.8872380669358714
  0.6954126378931692  0.6535760986142707  0.3819405805248764
  0.6984290809547193  0.6444114950015295  0.8838833286578640
  0.4492353099405750  0.3025874030529511  0.0460535046395420
  0.4576234334523374  0.2999860050456555  0.5433532184849807
  0.4583158886941849  0.8037153995275893  0.0425891872874568
  0.4486991957666810  0.8004211435246410  0.5539056350574151
  0.9323390883181188  0.2916885330197858  0.0435947516259731
  0.9557173973006339  0.3014520243732409  0.5406089383039163
  0.9581647192672906  0.8045877582940389  0.0486073500881499
  0.9459810834297501  0.8015706139258463  0.5505497746090847
