Ge Si O 
 1.0000000000000000
     9.9963628481758366    0.0135520086396523    0.0037917653199374
    -4.9864416610802396    8.6170442330322921    0.0047672510478098
     0.0041829928112998    0.0084514856609104   11.2505559240513939
 Ge  Si  O  
  21   3  48
Direct
 -0.0028004193843452  0.2251113123847160  0.1672824987587358
  0.0094172710530301  0.2299755267582080  0.6695307357182158
  0.0020595517610297  0.7239134252393192  0.1658232558649707
 -0.0103869411335517  0.7233031191016916  0.6665874549668248
  0.4992748252651353  0.2304571059253226  0.1672700382666730
  0.5066938152568187  0.2296303209923563  0.6686590472985983
  0.4998720850254136  0.7219362735374071  0.1652220375617503
  0.4967098606651204  0.7251421193601300  0.6651225811022529
  0.2736239267263116  0.2783755732427513 -0.0017094432491481
  0.2815836007820479  0.2796824206694481  0.5003069749264486
  0.2754779867588062  0.7702563851811896 -0.0028160394932290
  0.2672080404637114  0.7743353062577306  0.4995421169954078
  0.7725576537203090  0.2766513439716202 -0.0006658125501164
  0.7799402774814698  0.2737329090802458  0.5018006557903050
  0.7746572484098062  0.7688862593460269 -0.0013283234479078
  0.2242152088669202  0.0031761384564015  0.3318584948028965
  0.2255118110733053  0.0003243253662301  0.8317162846626245
  0.2243142388154538  0.5003619567556914  0.3330839280030283
  0.7242449050798315 -0.0061754344026119  0.3351083743291839
  0.7280630120786393  0.0004512082978920  0.8337948821756997
  0.7272782129269929  0.5011138454572197  0.3365549493412887
  0.7666620532647498  0.7691779087510742  0.5006593079849279
  0.2293208739198117  0.5021193874113141  0.8319633812354829
  0.7244865811312206  0.4989071721702805  0.8342771823071047
  0.0445212500791334  0.3477487308406069  0.2905134965795850
  0.0643657973207682  0.3600947779526625  0.7879829085706573
  0.0470399148671623  0.8492392590555222  0.2870610732113857
  0.0455450131870268  0.8527812983367636  0.7855258069314275
  0.5468572025519713  0.3516314793268374  0.2915743063487801
  0.5600844588768668  0.3564532192924609  0.7895744790773467
  0.5452923240384986  0.8442958138377452  0.2883006207515666
  0.5507998262966368  0.8494430166967615  0.7871080650682036
  0.1499175566160320  0.2008371770077675  0.1204059423226422
  0.1592180655082861  0.2004718870168548  0.6232388440005218
  0.1505138308762675  0.6922369238976226  0.1190838025685068
  0.1377790246578165  0.6931856844952466  0.6180424853993656
  0.6508019321637265  0.2031269921720863  0.1227056787304754
  0.6567793143538898  0.1992830502171054  0.6246208930823605
  0.6507529320156287  0.6924570608592361  0.1213906867161927
  0.6454177261413006  0.6997553326179828  0.6110633650255194
  0.3042028138026977  0.4583879990493002  0.4567170265822075
  0.2962711089489458  0.4529260280440625  0.9456759023013142
  0.2956653370126210  0.9550686708601059  0.4568244266891627
  0.2995681659114272  0.9485419478704454  0.9530016895353103
  0.8062058807870512  0.4528547869146814  0.4567727188018398
  0.7935873965341259  0.4505933924344805  0.9470844895190447
  0.7929030853305636  0.9356543849532659  0.4557462088024634
  0.8013883671108791  0.9485155836777523  0.9553821870765284
  0.3485261675832536  0.0492559278407712  0.2101903502330723
  0.3537914003802495  0.0503402733194852  0.7122768124078832
  0.3455615989906615  0.5430842304511390  0.2091540514001566
  0.3465945502320749  0.5506681899839155  0.7189074610352337
  0.8491467172319785  0.0437358500492476  0.2131804316537975
  0.8569279112631278  0.0519179377434889  0.7148130477883735
  0.8477261305776674  0.5466716668376913  0.2120994974817975
  0.8412550252533373  0.5488193892444068  0.7212352351257414
  0.2020904464932205  0.1585803693803786  0.3764908629054619
  0.1993377455251386  0.1525735912376840  0.8771939790893619
  0.1971420880474689  0.6536961923952104  0.3748938435660643
  0.2057870021497928  0.6443798994801657  0.8757445128956994
  0.7002645620543783  0.1472655044388883  0.3813865847440234
  0.6971013258397130  0.1497491241266296  0.8790277857218232
  0.7033687215491894  0.6527083941901253  0.3871386174803420
  0.7012356046383628  0.6413873598744088  0.8781738530663646
  0.4526835738818937  0.3087527404995744  0.0455141923959061
  0.4607226931879072  0.3080297772816396  0.5460981457875047
  0.4552067237944567  0.8009302995398164  0.0430505944462910
  0.4451191638351881  0.8028568531503064  0.5465456626166297
  0.9504713785436216  0.3034134708807179  0.0454822471762676
  0.9595918088575643  0.3029867622527422  0.5461066441052220
  0.9545486045944378  0.7987658561710079  0.0426055595399103
  0.9303350504975176  0.7929999328907806  0.5476483602914568
