Ge Si O 
 1.0000000000000000
     9.9917053724789024    0.0172481521670237    0.0051223956829579
    -4.9809179635687713    8.6083520303272305   -0.0023430498857866
     0.0056639062823467    0.0003080278221349   11.2556206079165566
 Ge  Si  O  
  21   3  48
Direct
  0.0014836175345107  0.2221233711447413  0.1690525837998070
  0.0000684813275211  0.2278401250956021  0.6701768455699453
 -0.0025430518148658  0.7288896718066544  0.1682938010091181
 -0.0054789974108212  0.7234991053867638  0.6661522526916609
  0.5086314853601623  0.2334278442330056  0.1682291851686521
  0.4963034723470454  0.2205137387421199  0.6658661960307354
  0.4941453788433871  0.7199899693107683  0.1642769662465591
  0.5065562806837252  0.7315107942873668  0.6636171544050620
  0.2785821547346029  0.2792860616884492  0.0017317172075489
  0.2750001883873238  0.2808859514977444  0.5029543061016211
  0.2715252194621238  0.7780710868417249  0.0016199856016361
  0.2737478823019475  0.7794110156567718  0.5003935545795658
  0.7772316772385895  0.2683617433876189 -0.0016489373157005
  0.7728104216384148  0.2698011123533999  0.4975045890335654
  0.7703454101219712  0.7717066587195524 -0.0039000998158181
  0.2276144993382877  0.0087656013025238  0.3331231162325923
  0.2202903467732118  0.0008636468074479  0.8330691760161496
  0.2213844623062907  0.5012677727927723  0.3342035657417451
  0.2305573836246290  0.5068661076854369  0.8334684559220752
  0.7245664892858156 -0.0110738253955041  0.3331328542681197
  0.7232942013898832  0.4930300069619125  0.8331271812055507
  0.7721597916122166  0.7649975762050185  0.4976068519053874
  0.7293818828472431 -0.0004608989149916  0.8323578410113581
  0.7310310457170413  0.5010152632702024  0.3356408346590477
  0.0426824405031128  0.3464076156925485  0.2910713244859658
  0.0504302351568616  0.3576214700460855  0.7885955371913865
  0.0490019650293776  0.8595848910227412  0.2862216567402052
  0.0407412857161793  0.8493337384305717  0.7877277417847579
  0.5661177422371985  0.3616186198012983  0.2885419372484607
  0.5442617978890996  0.3388693334344792  0.7918263024660180
  0.5442428552211844  0.8392310373412998  0.2895080091169328
  0.5667037142386008  0.8581967953491783  0.7845797470559935
  0.1555832887220153  0.1982167515896280  0.1242681805023847
  0.1506030195823106  0.1989135822560149  0.6244543036306605
  0.1457430856662576  0.6963926648900681  0.1223197492942219
  0.1466052945772510  0.6975958091546944  0.6201220409750181
  0.6534705325380493  0.1966068334381413  0.1208559837686235
  0.6490538324935698  0.1960859296499382  0.6198470903990296
  0.6470409769182774  0.6954486441498815  0.1185615614048053
  0.6509167031850150  0.6999613206420870  0.6079600050172074
  0.2994505091793648  0.4601223959555914  0.4592426013821655
  0.3042180441536743  0.4589762357601448  0.9574596007484657
  0.2976509068793276  0.9586962163889992  0.4580137181381929
  0.2951535624877213  0.9568236812345046  0.9584055320298115
  0.7991563875568126  0.4449467187114214  0.4439392988872990
  0.8038922036756262  0.4479798416828629  0.9538460896668554
  0.7968604816412997  0.9299629630701539  0.4506094814569910
  0.7945784698752074  0.9473096032315297  0.9451559520783614
  0.3568181869138647  0.0552594156915362  0.2150172396648920
  0.3430781176006640  0.0415117471779903  0.7105851734126937
  0.3418445764045119  0.5412207908422908  0.2102249207821998
  0.3570457049791406  0.5532501683029664  0.7130200532595846
  0.8497930389907686  0.0406066863589773  0.2111466341494463
  0.8494562100485570  0.0528127217074352  0.7214067011541376
  0.8471921250331524  0.5553575987048343  0.2221472414424172
  0.8449989879183213  0.5415944482039826  0.7094306071810963
  0.2020528850393517  0.1625375624704505  0.3771425365619753
  0.1999182064603549  0.1577583375351222  0.8777055631197325
  0.1988045439442697  0.6576544965631071  0.3761387385795339
  0.2027912163459902  0.6598798357649081  0.8756356327209275
  0.6962142698190569  0.1394592314362210  0.3794141656096339
  0.7039239105932730  0.1399169802580828  0.8786176846258945
  0.7108001811282203  0.6414105448036550  0.3885116319439993
  0.6948774177294089  0.6453450971487286  0.8751256749436508
  0.4588771204846445  0.3100848970112375  0.0471356282659562
  0.4528633966958096  0.3050634890961069  0.5466783549431606
  0.4499923222878345  0.8042708855161297  0.0456209931662579
  0.4534735051932445  0.8108445405259441  0.5466985583369862
  0.9558480361199220  0.2971418308839502  0.0448204413883523
  0.9508548103762693  0.2980509682263429  0.5450398732419645
  0.9484522043041373  0.7999394151221012  0.0434301329924012
  0.9371799668141595  0.7935361168554019  0.5461223957657488
