Ge Si O 
 1.0000000000000000
     9.9956902249617325    0.0118246476779127    0.0068238913993097
    -4.9876058251001423    8.6101152977720510    0.0049893735573615
     0.0075254563702863    0.0106751747471078   11.2566756299443878
 Ge  Si  O  
  21   3  48
Direct
 -0.0010415920455174  0.2230394799635395  0.1716270982349152
  0.0029235173069213  0.2272163900515282  0.6684053998076028
 -0.0009464520899543  0.7258849484198748  0.1695449449938225
 -0.0069970656626510  0.7269991297231676  0.6652209283078352
  0.5052542387551147  0.2322208584324443  0.1678372592288922
  0.4994023626394463  0.2223547173195398  0.6654733478079785
  0.5011587657419821  0.7267935886707249  0.1650117889534503
  0.5000689293727993  0.7252758888772604  0.6617646064567063
  0.2746743735281662  0.2771915901194306  0.0026337361625592
  0.2787016024113151  0.2828714133466369  0.5017299806506246
  0.2728517285100676  0.7763602020477589  0.0013797050444283
  0.2723521077245581  0.7811915319077385  0.5004024324600026
  0.7762291503487220  0.2734196154596740 -0.0000347366673836
  0.7743929280596608  0.2643877960737454  0.4969096166100405
  0.7744683048485066  0.7725427071240190 -0.0017384390381554
  0.2255417820806823  0.0084469855002230  0.3331068110911878
  0.2219212181858823  0.0012217237364467  0.8330844168061194
  0.2245598517922202  0.5053285714829336  0.3343856010609122
  0.2275007236783374  0.5031718382617391  0.8334501119876924
  0.7261345862449730 -0.0009663185054285  0.8323989384300260
  0.7240581319661041  0.4966187897909644  0.8332704725404952
  0.7688036105531969  0.7635977300253282  0.4952568839525638
  0.7277851369080723 -0.0113133938595996  0.3335307397291153
  0.7295758739751244  0.4964370965601759  0.3352247854193846
  0.0458393451031466  0.3522871955845181  0.2904522348851616
  0.0474723561367757  0.3508153968875081  0.7905167231465466
  0.0479017337705936  0.8562850946348689  0.2875322031925786
  0.0414983906205888  0.8517819355966467  0.7872500609146761
  0.5632888973207808  0.3594276798114933  0.2883659779487165
  0.5458563446523903  0.3425373994325784  0.7902590141317806
  0.5617383476533634  0.8538310669276904  0.2851327427371744
  0.5496415307150886  0.8447554543728568  0.7869797080096026
  0.1510847056655713  0.1967723530069632  0.1251432196814391
  0.1554466534744065  0.2010875782060832  0.6239791729078862
  0.1485280044667765  0.6953027124204133  0.1233632585757123
  0.1441379806902527  0.6997217176189483  0.6194130906822618
  0.6529765541998017  0.1993873954243258  0.1225250443009001
  0.6492063125885608  0.1930021946511595  0.6189358225068564
  0.6492577807497261  0.6944701478973569  0.1195321810249581
  0.6477490313196493  0.6994200935450141  0.6059838564015383
  0.3027520879948403  0.4621295493598439  0.4583722822788187
  0.3017858932773703  0.4572242128014142  0.9579267672244561
  0.2975356444768147  0.9609560892192761  0.4582562978514885
  0.2961356351244063  0.9548135599738541  0.9574292393031122
  0.7968957047289027  0.4367539619915122  0.4413018196175547
  0.8040998628094617  0.4539919007726589  0.9559670403038008
  0.7876795797837163  0.9222481081947181  0.4401030457215545
  0.8021934109641525  0.9533785151005741  0.9559922233425743
  0.3533667479009762  0.0536729157317444  0.2140752420763706
  0.3456844929982507  0.0437344102925140  0.7110349877206394
  0.3487287042579790  0.5493383058266759  0.2126698632938358
  0.3496807405309383  0.5460628141424366  0.7101353780869488
  0.8496487493409153  0.0463901339744137  0.2231347410486496
  0.8496201208114175  0.0467376086335621  0.7098226271134792
  0.8469555508607107  0.5523927475371679  0.2222377241929226
  0.8447802609293521  0.5444441591878012  0.7090237762174830
  0.2019059334939542  0.1634055585053560  0.3767413121363356
  0.1988459079075144  0.1559782931298425  0.8786081643730025
  0.1999596402753682  0.6604540271245588  0.3757758804974127
  0.2007666990492766  0.6563739403808315  0.8765295986418616
  0.7041333098296592  0.1277518752226587  0.3834903996916906
  0.6983465165896545  0.1510835057393664  0.8769400746187709
  0.7096448045512094  0.6356104995415610  0.3898234608912000
  0.6983182683259401  0.6510580696569794  0.8745531561987817
  0.4553762348822548  0.3088256204573293  0.0470596893157913
  0.4562201486249477  0.3057654589536941  0.5451199271733458
  0.4531848393791716  0.8070794042712590  0.0455971087333812
  0.4503558493635293  0.8078800325075783  0.5452941787652307
  0.9522898820097424  0.2960416349863437  0.0465828323958281
  0.9554122519725013  0.3018819200403393  0.5450536639285810
  0.9517035466320581  0.7977023931998660  0.0442810896883279
  0.9349951963605370  0.7976604769915498  0.5458256664775298
