Ge Si O 
 1.0000000000000000
    10.0172817277447468   -0.0000001254801199    0.0000000086262310
    -5.0086409680384580    8.6093586100400703    0.0090815330376111
     0.0000000230397777    0.0115581220462384   11.2544640874917921
 Ge  Si  O  
  21   3  48
Direct
 -0.0034200793915425  0.2255553680028797  0.1656257351590577
  0.0037657820907946  0.2318556644601953  0.6668328226631542
  0.0002468854899318  0.7245927980110357  0.1695323162198843
 -0.0029694359544149  0.7230992151130917  0.6696962746245747
  0.5034240647432501  0.2331266821986416  0.1674936582855219
  0.5053174011878098  0.2304138131793912  0.6688134554625078
  0.4981855428691877  0.7195408426318417  0.1649000575583568
  0.4951363311231414  0.7212873179377912  0.6668356488959011
  0.2738490086064829  0.2787126853304627 -0.0001689837522146
  0.2786446990272790  0.2804591606525492  0.5017666069664567
  0.2719101265601654  0.7681443415738232 -0.0001661592003225
  0.2710245576414690  0.7744446348819563  0.5010409320610719
  0.7739313511059892  0.2769007890734516 -0.0030296098545606
  0.7756540809433022  0.2754072015449642  0.4971343480674629
  0.7749035902961808  0.7695861810637709 -0.0021467905357781
  0.7702973898961221  0.7668733223526050  0.4991730057850114
  0.2280212512950359  0.0048305190001556  0.3344650128404530
  0.2275218386058083  0.0005432586837734  0.8345982383773389
  0.2220837449607765  0.5000000000527197  0.3333333324019248
  0.7231907305936299 -0.0048305215687820  0.3322016557377072
  0.7269785855131926 -0.0005432599534657  0.8320684335371445
  0.2244938342165294  0.5000000010517953  0.8333333330909547
  0.7284857536652688  0.4999999996378729  0.3333333341654903
  0.7268032671182701  0.4999999973451976  0.8333333339696329
  0.0426185050285036  0.3462758786921500  0.2902231404038748
  0.0593795655760330  0.3581692728915174  0.7881582095933822
  0.0496766231122901  0.8529662128776925  0.2890000882091661
  0.0480817042685622  0.8496182525645340  0.7902349333034427
  0.5630090820850222  0.3590228477907815  0.2887992293269971
  0.5617787846948337  0.3571367368030770  0.7898105333980544
  0.5451085037276360  0.8398995915643358  0.2894548540376522
  0.5486246626230603  0.8468304198150277  0.7882539095449600
  0.1484613969135215  0.1995497244335676  0.1207716760886273
  0.1522501484788848  0.2003122603433985  0.6219427402242524
  0.1466268463260648  0.6908074033961146  0.1217616550127316
  0.1463843941492922  0.6942193987692284  0.6227434736248103
  0.6507749743278619  0.2021513247370587  0.1192249273874442
  0.6540839716447031  0.2013939200702882  0.6206136959556081
  0.6477082799399291  0.6908703456610229  0.1181880425884379
  0.6412119904916606  0.6879333790513775  0.6184116351534887
  0.3016176197075404  0.4589532394709748  0.4574257956383757
  0.2927666277587812  0.4514165340125252  0.9464399169930319
  0.3001240609536608  0.9557030696278330  0.4584914558477990
  0.3002330162919690  0.9484930968389786  0.9562992290507421
  0.7960788973810601  0.4496582080604938  0.4458260044884612
  0.7952293527678124  0.4517625808633764  0.9465834437767301
  0.8005997978316258  0.9471256296874451  0.4530927245568354
  0.8037673585376153  0.9496033923844200  0.9524860498565214
  0.3534741752806262  0.0528743703517887  0.2135739482689902
  0.3541639624488110  0.0503966005218280  0.7141806232446429
  0.3426643821764512  0.5410467601304576  0.2092408689955706
  0.3413501014397343  0.5485834665720065  0.7202267521693105
  0.8444209930380123  0.0442969277382338  0.2081752128887860
  0.8517399274532166  0.0515069039216750  0.7103674433285945
  0.8464206953202951  0.5503417915586850  0.2208406665454035
  0.8434667700019977  0.5482374217748119  0.7200832228599485
  0.2052089191977812  0.1601004057028172  0.3772118137978977
  0.2017942462149987  0.1531695833752454  0.8784127558512554
  0.1963426263708071  0.6537241149526383  0.3764435313905499
  0.2012103043672323  0.6418307330009352  0.8785084544001442
  0.6967104118236620  0.1470337855557026  0.3776665753541909
  0.6984634662134906  0.1503817496919777  0.8764317332692046
  0.7039862447706373  0.6409771549717129  0.3778674372162616
  0.7046420470373942  0.6428632561277541  0.8768561329806780
  0.4532786082638277  0.3120666256967922  0.0482550310252359
  0.4568379307714760  0.3091296501281214  0.5484786234377099
  0.4519378967760997  0.7996877407608074  0.0447239222537674
  0.4489116776058121  0.8004502703142959  0.5458949861650088
  0.9521649945360346  0.3057806045388635  0.0439231971374601
  0.9558194386232317  0.3091926003185628  0.5449050106066534
  0.9526900544909686  0.7986060704531207  0.0460529663896685
  0.9486236589541486  0.7978486791741377  0.5474417338332654
