Ge Si O 
 1.0000000000000000
     9.9700079140066116    0.0032179924774682   -0.0041678760195967
    -4.9822170937319585    8.6358891523701509    0.0041678798270807
    -0.0045576086039988    0.0026313413304706   11.2556102764483192
 Ge  Si  O  
  21   3  48
Direct
  0.0037500660316723  0.2235528364429105  0.1667215921392809
  0.0028471965096227  0.2282714675588839  0.6656866404180442
 -0.0076801781540821  0.7263173324321139  0.1691079242581368
 -0.0025118861386925  0.7246561952288946  0.6686151858104035
  0.5069747617471870  0.2292674629625617  0.1686213002569449
  0.5017128729802390  0.2256554504952161  0.6685847489714879
  0.4977047761632789  0.7250954483297375  0.1619911457669505
  0.2815221693558631  0.2815221693018309 -0.0000000001069479
  0.2801642739627789  0.2801642738540430  0.4999999998595986
  0.2679607778833908  0.7766136754288425  0.0011277567996446
  0.2739489487372991  0.7738093103657143  0.5023439970116311
  0.7766136754154599  0.2679607775604572 -0.0011277570347219
  0.7738093104989214  0.2739489484961584  0.4976560027920432
  0.7675176148849823  0.7675176145785096  0.4999999998842646
  0.2282714669165094  0.0028471962286620  0.3343133598313304
  0.2235528359516648  0.0037500659707481  0.8332784080586970
  0.2256554499850607  0.5017128728872188  0.3314152510404044
  0.2292674626027900  0.5069747617676812  0.8313786997868808
  0.7246561947863226 -0.0025118864188910  0.3313848143745323
  0.7263173320930036 -0.0076801783911560  0.8308920758913614
  0.7250954478694824  0.4977047759646009  0.8380088542666699
  0.4984639824317583  0.7254992981093012  0.6643938305159289
  0.7694837818971524  0.7694837816410596 -0.0000000000680120
  0.7254992977476572  0.4984639821334119  0.3356061694620269
  0.0460091087402282  0.3490889003206617  0.2875097921595153
  0.0502970206563947  0.3556669506156572  0.7854558733835107
  0.0473269981614196  0.8563148612069869  0.2876325710683205
  0.0448600541201242  0.8502553594683910  0.7896875403530682
  0.5617507943394608  0.3561563860871965  0.2892566564813636
  0.5457033134765126  0.3462707167853045  0.7929305643956553
  0.5464198485271935  0.8433505235262432  0.2877028923330514
  0.5522313950974167  0.8433876842559088  0.7768047253165045
  0.1593931003113970  0.2015266748084978  0.1232440538723684
  0.1571179474678596  0.2038658661899037  0.6225444767392487
  0.1409317532390532  0.6954686381940747  0.1211662619839393
  0.1465342724066145  0.6939885451398736  0.6222046772457447
  0.6557869745266426  0.1970752406602238  0.1231585598406628
  0.6549464654913552  0.2006995120921160  0.6230871187565369
  0.6497540195673275  0.7031166495319159  0.1112181095436906
  0.6369976733740150  0.6975055426094214  0.6184918413745850
  0.3050369070335846  0.4580461258971402  0.4540730297981941
  0.3080487627117263  0.4603660374862024  0.9532934260642519
  0.3012716869970899  0.9535035644410275  0.4582517823655295
  0.2941735316997309  0.9564203873593202  0.9593739791127264
  0.7954735817072391  0.4484828282379633  0.4469074396488915
  0.8061311193876096  0.4485674388715263  0.9560620277025477
  0.7992391962438726  0.9472357096195033  0.4529182280170431
  0.7939693459589682  0.9336373575217571  0.9518788991032420
  0.3556669501732900  0.0502970213449836  0.2145441265686124
  0.3490889000586552  0.0460091095673664  0.7124902077653738
  0.3462707164330959  0.5457033142502028  0.2070694353472318
  0.3561563859617887  0.5617507950133727  0.7107433433862120
  0.8502553593372533  0.0448600547455052  0.2103124596358846
  0.8563148613460930  0.0473269989641855  0.7123674290061187
  0.8433876840700261  0.5522313955361765  0.2231952744613555
  0.8433505233933207  0.5464198492028950  0.7122971075687027
  0.2038658645401019  0.1571179460222817  0.3774555241576050
  0.2015266734081803  0.1593930991550560  0.8767559469397959
  0.2006995109686183  0.6549464644279788  0.3769128819313707
  0.1970752397817603  0.6557869736844376  0.8768414407655795
  0.6939885440629080  0.1465342711901783  0.3777953235484714
  0.6954686370822396  0.1409317519878378  0.8788337387243703
  0.6975055419120042  0.6369976723176788  0.3815081592391657
  0.7031166488340044  0.6497540186313643  0.8887818910993173
  0.4603660380704714  0.3080487624931104  0.0467065732611256
  0.4580461265050802  0.3050369066731523  0.5459269693965719
  0.4485674397597527  0.8061311193821873  0.0439379715988052
  0.4484828290718860  0.7954735815531420  0.5530925596573730
  0.9564203878560119  0.2941735313646775  0.0406260203762050
  0.9535035651028517  0.3012716867544357  0.5417482171269918
  0.9336373583491100  0.7939693458076262  0.0481211003747670
  0.9472357105184799  0.7992391960743810  0.5470817714153080
