Ge Si O 
 1.0000000000000000
     9.9936157484808223    0.0132998716334140    0.0070166145433908
    -4.9852871912521248    8.6101655899973828    0.0037462580281018
     0.0077129819380063    0.0092132391179760   11.2563909984105237
 Ge  Si  O  
  21   3  48
Direct
 -0.0037884385139227  0.2182690032995662  0.1665511544404742
  0.0009633359946649  0.2242846439688269  0.6654740448513269
  0.0056253518953196  0.7336649739495031  0.1710765300708952
 -0.0047824945218887  0.7264801023492964  0.6666984079320862
  0.5074233357928283  0.2362450609158240  0.1726392979398593
  0.5021227613625296  0.2251941387109575  0.6683581583019266
  0.4940280518312972  0.7186134083457157  0.1636694690591287
  0.4986369833723255  0.7264182594228976  0.6606961926781063
  0.2772274021585611  0.2781181816612934  0.0014225532923002
  0.2781865002483804  0.2752487927627847  0.5000534781178100
  0.2723228049710483  0.7737721261326614 -0.0012269482675164
  0.2704297708893869  0.7763006057768440  0.4955965003827751
  0.7735058340727263  0.2729209200662047  0.0010968184782016
  0.7750419004819880  0.2716882145837027  0.4981200273049175
  0.7747947736315155  0.7756174234534452  0.0012563605410843
  0.2249719238893702  0.0014897686161251  0.8330508050543067
  0.2197893714080682  0.4955887731135784  0.3319061869103887
  0.2263386400688306  0.5011979266105049  0.8309961408566420
  0.7199710314896145 -0.0112535482951627  0.3335479806936480
  0.7237894730686962 -0.0005548148572290  0.8322788907612160
  0.7252726124390103  0.4992745274606382  0.8356538615364597
  0.7706678578533993  0.7677211012965547  0.4998670881008067
  0.2326657240914346  0.0082132029903308  0.3333946234000704
  0.7345026151741388  0.5058039508707137  0.3379506365782867
  0.0410483840881842  0.3404032217368369  0.2900792203276416
  0.0472954708978686  0.3480300871869317  0.7877885720307554
  0.0689919028229374  0.8694384789866322  0.2854430069640457
  0.0447391565584022  0.8512287894459492  0.7887331406296687
  0.5693903867198531  0.3690923070625906  0.2893928809675805
  0.5462592046982160  0.3462026528727666  0.7923719196863021
  0.5401562761740791  0.8390392401295842  0.2881242606312897
  0.5467752549911968  0.8463761484665349  0.7856049090962236
  0.1504971686780494  0.1953750415380914  0.1215503351367617
  0.1514736520391498  0.1949974321979671  0.6205202248429812
  0.1491855455041062  0.6961369068658163  0.1215125611890706
  0.1462035099950414  0.7011161037061141  0.6175465720445845
  0.6518911361104865  0.1991747943978256  0.1248778630654246
  0.6549611175273774  0.2001380093796923  0.6230350797082445
  0.6483145451799138  0.6939827442921558  0.1217424559862807
  0.6472738372645548  0.6992022926645096  0.6088709501292664
  0.3018025750857498  0.4528230677663601  0.4531933957960506
  0.3039125495238137  0.4573139837812769  0.9545878851426582
  0.2935349701905573  0.9522817196232054  0.4466832698656805
  0.2984867344126528  0.9542808463766418  0.9574802074910421
  0.7995543657644075  0.4469334166643615  0.4465300601770643
  0.8016012433085754  0.4542397955627946  0.9593755438077857
  0.7928028330336063  0.9310184584865453  0.4513949692344756
  0.8001992749466320  0.9545266139674905  0.9559941652240483
  0.3564545375879489  0.0621548791478624  0.2251215394832680
  0.3487736170483869  0.0447050714195993  0.7108611725770611
  0.3401356615875472  0.5394012966850772  0.2072807975796761
  0.3476301961509175  0.5466027339844929  0.7069629124183560
  0.8446819954418111  0.0380231816996758  0.2112526794052547
  0.8474446201656318  0.0457660104595312  0.7100163134268269
  0.8548640731665998  0.5623298620560608  0.2271945110848783
  0.8474608209611767  0.5447169136036752  0.7124653227655681
  0.2093103277507345  0.1499548183251104  0.3784811835841871
  0.2033961981734811  0.1573773805784417  0.8770193168674058
  0.1930759972599935  0.6485718607075531  0.3754490624080615
  0.1976115169019569  0.6532941385005830  0.8744627241445413
  0.6937962655861115  0.1403987014740577  0.3808533285038844
  0.6950514018345901  0.1508532599989444  0.8779140982153345
  0.7133711016110524  0.6455210261127886  0.3902982389128719
  0.7012753359710535  0.6546495317326591  0.8768886063857063
  0.4560451782388967  0.3087910427571476  0.0499917464095358
  0.4569109058908751  0.3046541789432980  0.5467523377068499
  0.4513846706315115  0.8004735870293789  0.0422436428404316
  0.4498215642543671  0.8070205280966957  0.5419095407204751
  0.9516102382993012  0.2976032082387259  0.0444507132390164
  0.9547350500666508  0.3005609940463949  0.5421760749345573
  0.9533465593367134  0.8048385359336298  0.0481975187543449
  0.9357539474170852  0.7980683621037541  0.5491949094422155
