Ge Si O 
 1.0000000000000000
    10.0168520720945757    0.0028013067752352   -0.0015896337175031
    -5.0060050638835385    8.5939024776288573    0.0129623628707825
    -0.0017185890563633    0.0154640766776967   11.2611604625233390
 Ge  Si  O  
  21   3  48
Direct
 -0.0009836681395369  0.2253386997175791  0.1665019895747060
 -0.0036041504132967  0.2265664297359222  0.6686010704293868
 -0.0014548584343413  0.7283110790552209  0.1700982786007534
 -0.0000225727259839  0.7250077148648735  0.6711655139434290
  0.5052466977472327  0.2293663985949835  0.1669067940317868
  0.5022244313733090  0.2280223070031688  0.6668945767322622
  0.4957267278068070  0.7196863617526772  0.1637318167227445
  0.5025112741389633  0.7260335455266773  0.6650301984593461
  0.2772873683140255  0.2816013968211669  0.0031802640902436
  0.2734915196087616  0.2796765477290767  0.5042142060308916
  0.2724892608345478  0.7789072776055390  0.0030667037514236
  0.2736469986737641  0.7769429289298080  0.5029974831182188
  0.7739340857856735  0.2671328059368772 -0.0058069338333111
  0.7727232027951253  0.2723424171749054  0.4950910923618174
  0.7717197830262306  0.7669882438910198 -0.0051913612627407
  0.7753420276860713  0.7677253771377621  0.4969445223431248
  0.2272279592591149  0.0059039031780996  0.3358988922311158
  0.2255082556873872  0.0057051707959838  0.8356580912734748
  0.2209019123094299  0.5011410271087835  0.3344253436802399
  0.2242649839072418  0.5050373034361585  0.8347090877097920
  0.7242718016686867 -0.0059597260341630  0.3307785419945874
  0.7272537654238941 -0.0054764791920365  0.8307851780549137
  0.7293710372552439  0.4990121976344865  0.3320484716966305
  0.7286195456378687  0.4949977657647758  0.8320199435922089
  0.0417162385789843  0.3470318970078850  0.2901869304382347
  0.0449224363447560  0.3536930575167828  0.7890546807842086
  0.0474711502760688  0.8558388293362461  0.2900216830052784
  0.0465868244037111  0.8532314901053593  0.7906685443741062
  0.5651043927622663  0.3563834442522852  0.2875625838133909
  0.5633190768030830  0.3533305776747845  0.7883483377077014
  0.5460109223459252  0.8382946328140907  0.2894685905333237
  0.5628459742059925  0.8522564451639170  0.7860856814433302
  0.1512640007058551  0.1985856997925525  0.1235790218730618
  0.1465233135285142  0.1970323375044792  0.6242000864923082
  0.1478486123355117  0.6981695055371321  0.1246210329567181
  0.1504124283699964  0.6964187515413245  0.6256341519808643
  0.6495699743469107  0.1948248905508053  0.1162579982092502
  0.6491533956649517  0.1975088943190686  0.6172070508997595
  0.6442050859806621  0.6908350124306756  0.1148631738236540
  0.6470315076295560  0.6907990090013886  0.6163656468493687
  0.2979351353660228  0.4586427437805038  0.4591442556981964
  0.3007526539007252  0.4604901221616522  0.9588318495145847
  0.2994884501433753  0.9572702962862276  0.4602295467748751
  0.2988608756415636  0.9594343918349905  0.9606676068046576
  0.7971405265169649  0.4487006024012821  0.4444270464804943
  0.7964601902455117  0.4419734254355362  0.9424481245250586
  0.8040190502597530  0.9480495059756242  0.4514926189784911
  0.7956728978459467  0.9413739483005001  0.9406858829807044
  0.3533592599345523  0.0513040533745994  0.2156441508209775
  0.3504657593310191  0.0495105131542234  0.7147780926218334
  0.3415204452345938  0.5415973275826352  0.2106801111054348
  0.3490456657467721  0.5489788559795608  0.7136176706531387
  0.8451756696413532  0.0432835926798965  0.2064763943244715
  0.8446628983312725  0.0495887866538650  0.7179138535474904
  0.8468525869075564  0.5511351511731457  0.2193202250390673
  0.8466952679752103  0.5482539490067968  0.7195095248051180
  0.2028621980312448  0.1603703836262263  0.3788717962604423
  0.2036914716429248  0.1619931294979511  0.8779648772372827
  0.1970637856192681  0.6559077475211166  0.3785981316940585
  0.1988012192965376  0.6590230903516443  0.8780561035629135
  0.6957512068622790  0.1452307053560324  0.3748806595843195
  0.7019391834247096  0.1340794246905020  0.8777580227520465
  0.7055601896663815  0.6405822036727203  0.3764908962800022
  0.7039694266425613  0.6353001419531695  0.8775256156137785
  0.4559889023852391  0.3099390543714491  0.0483346057414001
  0.4525540620464498  0.3093060657866183  0.5493328232330058
  0.4508722990233804  0.8047091878563665  0.0459377505972450
  0.4538037125012674  0.8070692561221486  0.5465180879466549
  0.9539342235920010  0.3025200793890162  0.0431801711021719
  0.9502933812679838  0.3011114872270945  0.5441206600236923
  0.9502103273660865  0.8013553881622765  0.0462374920632695
  0.9529143540986823  0.7976702199132536  0.5464503911220626
