Ge Si O 
 1.0000000000000000
     9.9980573743935857    0.0115204762479943    0.0071852808408667
    -4.9890511426092568    8.6087562823816217    0.0012880370706635
     0.0078855934659168    0.0062256265551548   11.2556932408271582
 Ge  Si  O  
  21   3  48
Direct
  0.0017086856038807  0.2244235814031773  0.1695222681238279
  0.0085044019175479  0.2322390689688458  0.6726453498679209
 -0.0022294664484791  0.7251371049450532  0.1635925612371791
 -0.0105118565190924  0.7197301668422573  0.6634397873152669
  0.4997212738920672  0.2279682513311622  0.1652088893042289
  0.4963370184191871  0.2193020905661774  0.6651971991983522
  0.4995692600175644  0.7244869397637693  0.1670068116003783
  0.5059860583700878  0.7347398067297278  0.6683628174352355
  0.2748483210646770  0.2764227786037775 -0.0031990724307948
  0.2760200306890169  0.2763235817992920  0.4998886692325942
  0.2748161769942544  0.7729705290551030 -0.0009672758875889
  0.2725434435243940  0.7779516956563404  0.5002012956560512
  0.7755903980735270  0.2719239850153830  0.0011775066289580
  0.7772376996145908  0.2734806457708944  0.5026103715283493
  0.7723578770007421  0.7738813302024030 -0.0031886335626606
  0.2230412128904369  0.0023692487615964  0.3306218992832535
  0.2186475721643685 -0.0046117672093915  0.8304791921259532
  0.2258412839877063  0.5014233876781155  0.3343684322701798
  0.7266169145540197 -0.0051666959720646  0.3358502663671501
  0.7253233751863712  0.5004145266581798  0.3355748197452849
  0.7188289027475996  0.4931916589973229  0.8333618442738011
  0.7690366742093282  0.7699420556903389  0.5002032151337240
  0.2358483664064126  0.5068270965308617  0.8334847676924932
  0.7333691209663922  0.0051014480306986  0.8350082890153812
  0.0465023290694599  0.3474779057556466  0.2923173575906874
  0.0710927898847109  0.3674821958238559  0.7873111023530284
  0.0451016732361076  0.8491949248405082  0.2859376409703299
  0.0388815648876269  0.8437994638740424  0.7862482484553565
  0.5460701238656172  0.3496860650729177  0.2892898022703472
  0.5402456905518842  0.3387523668888141  0.7904518812777818
  0.5463820905581087  0.8455357569748675  0.2909448477242053
  0.5704187560721977  0.8661245072225828  0.7858204515787774
  0.1546440137898219  0.2011883845384195  0.1213668554682288
  0.1539300587411747  0.1977230528587138  0.6231640876480080
  0.1461624798586691  0.6927572607625911  0.1182321533846028
  0.1418052575587186  0.6947689792266818  0.6175682728250882
  0.6487199829717651  0.1956831435357088  0.1216564391301875
  0.6502684564531100  0.1945404313591356  0.6229736792849411
  0.6523540748101764  0.6993750913303847  0.1215964506829312
  0.6503119758598217  0.7035802842642898  0.6122235934676720
  0.3024352735109231  0.4572368133532628  0.4586381250638421
  0.2993553249436237  0.4526726560466276  0.9463091434420301
  0.2978122181144264  0.9568078039430145  0.4548918501887211
  0.2974661155140242  0.9497874977368440  0.9520883782810836
  0.8051665206569396  0.4523274848814614  0.4549933560650932
  0.8005173993009750  0.4498567488101178  0.9541874147157478
  0.7955413796514264  0.9371051551773055  0.4565468659021423
  0.7953467523146325  0.9498002438379082  0.9480018411290110
  0.3467201291260645  0.0479857202910390  0.2085334987136711
  0.3415026315692730  0.0398039498799665  0.7074840771240818
  0.3470277420906402  0.5440828124487127  0.2104790638694218
  0.3576008145291728  0.5603885743330764  0.7234362623791769
  0.8516407857486545  0.0429084535467263  0.2139659541680216
  0.8572663259724835  0.0597475038509988  0.7267136014391806
  0.8445726626506093  0.5475002867299718  0.2104422242802341
  0.8397243241443317  0.5393234610654632  0.7092286845383653
  0.1976389171550021  0.1560026383221858  0.3756069457050568
  0.1942156964871189  0.1489064593551408  0.8767206335150586
  0.2022237854773749  0.6568928469948543  0.3756580133466839
  0.2107514436373291  0.6478639860447002  0.8773854988856995
  0.7025248169825107  0.1484951895016219  0.3808987701165508
  0.7075913843532747  0.1452395715565205  0.8804509657207993
  0.7018362759440501  0.6520675521212649  0.3875219843832181
  0.6925118911008263  0.6466253600510189  0.8764563935128052
  0.4546399077393825  0.3064837631344444  0.0426333952246965
  0.4546377589011523  0.3019136249443453  0.5435036918364852
  0.4539631233002679  0.8046765742828775  0.0464783508515274
  0.4507173948986510  0.8095698624021853  0.5499038538503747
  0.9540359389242514  0.3015059451206625  0.0479716912074288
  0.9555788122212786  0.3023002398124329  0.5495755626833565
  0.9519575281006127  0.8025974854313311  0.0408285933180265
  0.9335348614417533  0.7933814048420189  0.5449111792740801
