Ge Si O 
 1.0000000000000000
     9.9963233665810414    0.0131066287397846    0.0000419632166679
    -4.9868110861450328    8.6183700284889451    0.0071296469244101
     0.0000639274571654    0.0090880849302878   11.2502448691694337
 Ge  Si  O  
  21   3  48
Direct
  0.0043105117988288  0.2310861904061113  0.1686070301422135
  0.0025675024190567  0.2239285326097273  0.6683946824802931
 -0.0010789348163672  0.7222537422988140  0.1659698085870712
 -0.0073435933670321  0.7248194868298763  0.6662687603826303
  0.5010835673912798  0.2275997522053509  0.1682654048504391
  0.5049273413300365  0.2320633459833217  0.6672931156641611
  0.4970411553041860  0.7233881778368305  0.1672366360920357
  0.4995813892262173  0.7240676748571621  0.6632571402382174
  0.2778368690375527  0.2795448601096545  0.0001517323042181
  0.2770548064967816  0.2783248911313117  0.4982906097992047
  0.2745179020453465  0.7762795919548011 -0.0014859434771944
  0.2680854939517860  0.7685435325711999  0.4984348812293011
  0.7743926613099453  0.2753335663008490 -0.0005894426296081
  0.7782150519854256  0.2750893790055142  0.5015915485157054
  0.7701897682430248  0.7661289966739543 -0.0000228966379688
  0.2236633693219350 -0.0007141591065896  0.3318259412037242
  0.2262286661426562  0.0043460444321337  0.8316605746013103
  0.2266079350903981  0.5022636485929746  0.8319525787856042
  0.7278266571704940 -0.0020187728151877  0.3351545320510174
  0.7248923398380428 -0.0034991051622388  0.8338694915548323
  0.7255273987273774  0.5010916390485294  0.3365438059475121
  0.7706625368356533  0.7716785862888780  0.4996370732275179
  0.2269958023117873  0.5006713946647513  0.3331001087728192
  0.7260087615593177  0.4989367320500502  0.8342231007542751
  0.0618496028711071  0.3595710838644018  0.2882809835062285
  0.0473134644544238  0.3483217195594931  0.7902763155306515
  0.0455581529367435  0.8459353175236449  0.2881378839936450
  0.0473480762695531  0.8557929524568064  0.7843698993985075
  0.5459869289930593  0.3494785652682144  0.2921350912511688
  0.5612203712119518  0.3581662870314826  0.7885139083966529
  0.5489028457526818  0.8509216407551091  0.2871074477836244
  0.5476814980414195  0.8429982370716436  0.7884531962591800
  0.1530332463002856  0.2005262643381661  0.1213502930442810
  0.1561524706518839  0.2006579778433037  0.6222184059858658
  0.1502398286831630  0.6952576026401703  0.1202002239052327
  0.1378415471472731  0.6899754466312172  0.6169189526087525
  0.6535102445433836  0.2017383219134061  0.1234752462921527
  0.6538216550815861  0.2000717837211057  0.6233512070643615
  0.6447212002661832  0.6895746304263473  0.1218058480100852
  0.6508617607226478  0.7022233504508464  0.6108270030105304
  0.2958139445892112  0.4514824576679505  0.4458518541209954
  0.3038063630373428  0.4594540902549447  0.9567070601495539
  0.2956512053281348  0.9482558093907899  0.4546020892960591
  0.2996458161339723  0.9556759608183121  0.9554940193460421
  0.8052152488726154  0.4546700192183683  0.4574157145413624
  0.7944932984060883  0.4486761441938222  0.9463212991821393
  0.7958772106370549  0.9379572810823051  0.4552205733908068
  0.7984903428917002  0.9461123196501315  0.9560836691802936
  0.3491757022455830  0.0468561943191733  0.2107483965845388
  0.3533017003013447  0.0525674158716479  0.7117756999813719
  0.3443528771081795  0.5503132340004880  0.2202305148715137
  0.3477453820265117  0.5440722981283571  0.7079940036150296
  0.8563042645453305  0.0509098334861763  0.2157477517201488
  0.8501860221570372  0.0446747642728469  0.7125283038609378
  0.8446881197146016  0.5446740749718210  0.2114665404699390
  0.8439238049182761  0.5511217150469241  0.7219094009003914
  0.1986947535750414  0.1520973992977621  0.3774766281564598
  0.2027254312204546  0.1591046885175660  0.8758578514185489
  0.2021726518535238  0.6417998664655559  0.3775929220136141
  0.2007596595082100  0.6564250544595022  0.8735272636127516
  0.7015706297689771  0.1504271124327198  0.3801247815429505
  0.6965275400062906  0.1471670772465032  0.8797968676485586
  0.7046217342210415  0.6547953185427097  0.3862411525395310
  0.7002534295031521  0.6393936952228884  0.8791542521161743
  0.4558514616640837  0.3058782907293097  0.0457440392332092
  0.4572507314800214  0.3105089551277663  0.5456067807719900
  0.4520398929195448  0.8009760315198553  0.0442065785688456
  0.4482787647871965  0.8033847955341544  0.5456836630628359
  0.9540279689322479  0.3069189360730704  0.0468934428822724
  0.9559687647022659  0.2994148349938529  0.5449339514727801
  0.9506599483009904  0.7977213605664470  0.0437599202963806
  0.9340874813625497  0.7940940606323840  0.5462508329711365
