Ge Si O 
 1.0000000000000000
     9.9969578399120707    0.0151037082846849    0.0062693439927222
    -4.9853992606841695    8.6105318544542939    0.0030223839208461
     0.0069101221647959    0.0078303413378822   11.2527520239834509
 Ge  Si  O  
  21   3  48
Direct
 -0.0038615761973042  0.2197921813391296  0.1670894601935851
  0.0095544160282874  0.2291356445521154  0.6681444062406586
  0.0062224288183582  0.7305418529292326  0.1664476282723450
 -0.0099198560923256  0.7220431211472689  0.6641495172352189
  0.4986783048105434  0.2314146707179504  0.1698190488603944
  0.5017600928705485  0.2230777723072322  0.6676821247592545
  0.4991863446588513  0.7221786079281109  0.1664722155441569
  0.4982714150888305  0.7302393222544135  0.6654894921992864
  0.2728017023651953  0.2746442561380684 -0.0038266689624764
  0.2797494481828646  0.2716456767665814  0.4970916947539996
  0.2761596285531129  0.7693464652536938 -0.0037107408946766
  0.2684166515391687  0.7741898536487506  0.4951038274190012
  0.7723191761227239  0.2772842323341312  0.0040328107051342
  0.7787881623013727  0.2746723914909792  0.5029442765864397
  0.7759821881904443  0.7768756276725075  0.0016610002036781
  0.2231988951769537 -0.0043092689833643  0.8304346674219372
  0.2238459313105146  0.4954531894659238  0.3318521303572614
  0.7218406336591759 -0.0057842677643724  0.3361157943947303
  0.7281082452259111  0.0054069595423303  0.8350394800217218
  0.7291637167179209  0.5055927524705407  0.3378376986009717
  0.7204700735434790  0.4990028991573772  0.8355254480598741
  0.7680702433617836  0.7733468476790132  0.5025790521594616
  0.2284615652360838  0.0024869137573260  0.3308834150898877
  0.2319185283295700  0.5016191244680295  0.8309415505416007
  0.0447848223822851  0.3405590957671669  0.2914924495004502
  0.0676950468561679  0.3596023095713912  0.7863640205114596
  0.0649112385296934  0.8612125401605037  0.2847273485364681
  0.0430531367991516  0.8446276909432129  0.7876601423341452
  0.5490147027143413  0.3592389128666723  0.2899066117676929
  0.5421904368550430  0.3450400416715287  0.7910780239645951
  0.5423611236315806  0.8442774913943266  0.2897513733101580
  0.5502493571017920  0.8562685891210988  0.7865347205162435
  0.1490791518647518  0.1973248154534736  0.1183748166059389
  0.1556543438580563  0.1952084265289961  0.6193891997787641
  0.1503935289253303  0.6936096288677851  0.1175736466108096
  0.1408941409063273  0.6970581526904465  0.6147838060084575
  0.6480584662920950  0.1997901678134535  0.1259918934980031
  0.6555167061118974  0.1973381815282624  0.6258359470330693
  0.6530365064684430  0.6965000519604171  0.1245092744234385
  0.6471304249090921  0.7036866158260680  0.6131203112739376
  0.3046586015935455  0.4508096031945010  0.4529801924237119
  0.2987352575341020  0.4506309859170719  0.9435825866594609
  0.2929747882044175  0.9498696957775864  0.4438431060432615
  0.3007953598666343  0.9479741324630554  0.9517697613660359
  0.8052255949957136  0.4538306114542304  0.4577748557508377
  0.7982431530671086  0.4568432673634460  0.9599131302161746
  0.7916541863150894  0.9389233227046351  0.4578051533774166
  0.8001680993134735  0.9562549638448667  0.9592830866680614
  0.3481209388430170  0.0550521017291495  0.2196852874370661
  0.3468724498318965  0.0424668088282238  0.7077667573127234
  0.3449174652080995  0.5417481451229684  0.2074770685398299
  0.3498114636028785  0.5539842357306182  0.7182213826429042
  0.8462901025623814  0.0398263786671675  0.2140315118086522
  0.8570307634802721  0.0526727920073868  0.7164748921596916
  0.8541071797344741  0.5546416587386811  0.2164053220498013
  0.8417761546464150  0.5420605428569037  0.7120013551286951
  0.2057340413257882  0.1445832488919238  0.3766094032460970
  0.1968775789396199  0.1481472045895941  0.8754508043022291
  0.1955129578964200  0.6474613527904756  0.3743302196364764
  0.2065566809232247  0.6424160904250136  0.8757078083257125
  0.6994361597887855  0.1490384438283541  0.3817125515682585
  0.6994098262855704  0.1570387474599885  0.8794381560105728
  0.7053466400252000  0.6571424888328207  0.3889203252373432
  0.6980010759587276  0.6553868450831105  0.8775870269116903
  0.4510125880943164  0.3041197727522197  0.0451205477840800
  0.4587894269717747  0.3010028769526379  0.5435708648071963
  0.4555296715221702  0.8004228383197663  0.0432505789111367
  0.4462728901370617  0.8050087766376783  0.5448113331077987
  0.9498626106620784  0.3014227828314461  0.0476241264278089
  0.9586570680336219  0.3037948883744181  0.5465229577290611
  0.9560110377443038  0.8063598236605035  0.0451472181087302
  0.9323986928831762  0.7978250337314611  0.5482877128646378
