Ge Si O 
 1.0000000000000000
     9.9764126821476875    0.0025698133067913   -0.0018001594334064
    -4.9859812154510950    8.6394115954157940   -0.0023713290834494
    -0.0019702421805261   -0.0041561954334021   11.2499479532466857
 Ge  Si  O  
  21   3  48
Direct
  0.0008291220542626  0.2215057139259123  0.1652910034828844
  0.0048482005866096  0.2243598019829919  0.6653641804619614
 -0.0010240355801328  0.7257324777842028  0.1680720462988950
 -0.0047614763329962  0.7297109938427500  0.6680753671397474
  0.5040221885208875  0.2274452268360644  0.1691034928391224
  0.4995592518385417  0.2229471452865896  0.6700665093316874
  0.4956816302015391  0.7258156917133850  0.1642404324465837
  0.2784027139659261  0.2719109883358618 -0.0033148809246508
  0.2808109297435890  0.2778988897730970  0.4980275567134350
  0.2714393492293061  0.7753171553027774 -0.0033650346221801
  0.2717041338060134  0.7738706376865794  0.5005752063116757
  0.7748546462701377  0.2725497233703706  0.0002200856730198
  0.7740095640869259  0.2707835896578449  0.5023167948837712
  0.7733666658012041  0.7767772964854267  0.0021178210659684
  0.2278556959084324  0.0014101115060358  0.3329797816574287
  0.2239196217557287  0.4992011438563657  0.3315256322376303
  0.2339151413352607  0.5037610765904122  0.8290198179517668
  0.7241248471194343 -0.0045546313931730  0.3335390524462720
  0.7240793728805480 -0.0004432870497536  0.8305196599825173
  0.7256237914192520  0.5015820080796809  0.3396661342748665
  0.7237545549464447  0.4999214231432839  0.8374922356438065
  0.5006067222609160  0.7301140167449901  0.6633050512951252
  0.7660870117960331  0.7730333108494252  0.5033961541138535
  0.2262211937171434  0.0001254517955768  0.8318280765780359
  0.0453618607471552  0.3454610152190591  0.2875787008836672
  0.0549179777689417  0.3519287495778612  0.7849458157393533
  0.0482857369704267  0.8485471346128068  0.2911488274474668
  0.0600553255176099  0.8612938272672714  0.7860134463924729
  0.5469971845583248  0.3503374476135279  0.2920513480378830
  0.5454888227576443  0.3488968788283722  0.7909764797052892
  0.5427947243712353  0.8471196522410470  0.2882291016367878
  0.5518947081725837  0.8469868329305030  0.7767413135251412
  0.1530055677260874  0.1956201669734676  0.1184187293848722
  0.1586787190040332  0.2005044662797857  0.6211074672460788
  0.1499736146754804  0.6987318308983871  0.1201200105746152
  0.1401347731497072  0.6959065809129368  0.6173133308693760
  0.6555435050789191  0.1987038239083826  0.1253001960177401
  0.6511297399595111  0.1942496546616904  0.6256887824040837
  0.6493047913813763  0.6988911164065911  0.1240648682578816
  0.6418882421926028  0.7113241434424574  0.6117651306835763
  0.3056930674457454  0.4560909119828306  0.4530140594520885
  0.3101396454213667  0.4516706507848704  0.9487581924212091
  0.3022616880849978  0.9549875306197515  0.4574691402447416
  0.2916416714247816  0.9485670038876930  0.9451613834710276
  0.8035232593804942  0.4510788632441375  0.4590213303793384
  0.8017436989269436  0.4528528375476298  0.9589838255881158
  0.7939394629579040  0.9377243302820836  0.4535943667336784
  0.7963784848620001  0.9537266533090094  0.9563759523503139
  0.3514383143566854  0.0466847133453828  0.2107399295556210
  0.3457544129057593  0.0488588370045024  0.7202626029978947
  0.3433178172564635  0.5457942470360281  0.2064272960050663
  0.3622051589722998  0.5635519624205291  0.7090222335190995
  0.8500294923468740  0.0424934339997394  0.2123913957965699
  0.8537059258757032  0.0470568597142861  0.7123757544257665
  0.8462248842585804  0.5488857821751328  0.2153056388085859
  0.8485806348443906  0.5502011296907927  0.7162062897922579
  0.2022990024817592  0.1551292712531827  0.3752529695568285
  0.2051370901934841  0.1430997855132013  0.8771610718972168
  0.1991327051328599  0.6526616264899692  0.3764016507647278
  0.1982042544240230  0.6492256313989913  0.8758165540891399
  0.6962994369122268  0.1462852395217085  0.3804827811548370
  0.6943667749564868  0.1498568820497317  0.8769991792130054
  0.7009208484805521  0.6514137567293877  0.3928175287467747
  0.6986292647863054  0.6540588867772471  0.8789959410901736
  0.4576059781118472  0.3021367089580996  0.0451579205616798
  0.4574311235802579  0.3003398309037917  0.5450761068712010
  0.4519936364158810  0.8051138914479371  0.0413093515498968
  0.4453633439105573  0.7977023438051610  0.5539907451466386
  0.9540245956495154  0.2972984457349983  0.0420556735103176
  0.9540584252212209  0.2967653341855577  0.5425517153734769
  0.9523456546771208  0.8038800319623791  0.0464716619803957
  0.9302241143807956  0.7995273083412130  0.5528240308631915
