Ge Si O 
 1.0000000000000000
     9.9948934877173379    0.0118376636542306   -0.0029700423665368
    -4.9871909674300801    8.6107244488202817    0.0089568419722994
    -0.0032562340877281    0.0094883993107558   11.2562509498928804
 Ge  Si  O  
  21   3  48
Direct
 -0.0026443881241269  0.2223907660655614  0.1654233535054680
 -0.0004416789590196  0.2192522808273835  0.6664092493027857
  0.0020565634659320  0.7269002143111715  0.1677752910121583
 -0.0005431530329790  0.7331467400218105  0.6694531266118254
  0.5037924973816603  0.2295247786187329  0.1695012349475161
  0.5062237766821542  0.2320849018020989  0.6715445093752892
  0.4954346929207950  0.7225538928829349  0.1629009993050212
  0.4972390661664653  0.7227109809734802  0.6618388783917737
  0.2758959980538267  0.2733416507389034  0.0001440228263845
  0.2790320221025937  0.2796783235865430  0.5013081407207228
  0.2727748477788605  0.7751511116519416 -0.0045597944349583
  0.2693923841422415  0.7745589613608577  0.4985371705796421
  0.7738089822446084  0.2751090344600241 -0.0022188546695921
  0.7742108305903231  0.2695421275721247  0.5011957216028919
  0.7735180162618394  0.7711508513564046  0.0005483052835932
  0.2266438500770710  0.0046656331540779  0.3330175786193991
  0.2220602038524405  0.4994605961714547  0.3319177394459231
  0.2240873004966613  0.4972992175729251  0.8306915038627076
  0.7226256374618728 -0.0072346708660234  0.3338959263433479
  0.7213031950134342 -0.0041215877391737  0.8326529588591918
  0.7294379350673837  0.5021318111795977  0.3378947828236920
  0.7718208834859424  0.7728257098102064  0.5013814794752661
  0.2311002390053233  0.0056400669786086  0.8329799950296534
  0.7313297549365271  0.5042183116533173  0.8355750688065008
  0.0433377653433621  0.3456260809845968  0.2882672167201836
  0.0450398672688045  0.3428985365136610  0.7887266749019906
  0.0482307383068284  0.8514017387681716  0.2894475770583721
  0.0662036237003527  0.8688316122875627  0.7841412219731428
  0.5494386676981221  0.3517162438254027  0.2929492262209474
  0.5673424092233489  0.3641710183020872  0.7885819051170848
  0.5431938222327891  0.8435588408693343  0.2870237491862567
  0.5441868597387540  0.8414948298767626  0.7873743600876961
  0.1478194466645367  0.1934419546966384  0.1196434258018508
  0.1536471394883865  0.1959670943975821  0.6220781459606591
  0.1526854683766360  0.6999174853254171  0.1198579417232462
  0.1423714881944780  0.6961594928474150  0.6185419438275301
  0.6553441273189683  0.2031595438438274  0.1232858140657468
  0.6515324657981069  0.1961009160923778  0.6243888828201426
  0.6461705153976274  0.6922465662796496  0.1205702631436135
  0.6496609650487382  0.7017342300965907  0.6108704287948128
  0.3025969926880547  0.4580200489938878  0.4553283415749628
  0.3024909713482755  0.4519075067728632  0.9528286887064805
  0.2970059577077520  0.9560655172200963  0.4585685299544392
  0.2935345174844388  0.9498968243499303  0.9457145986202571
  0.8049864923472645  0.4512013667591024  0.4586923784026560
  0.7968261319848671  0.4509155418371855  0.9478438029374430
  0.7945676938738367  0.9374256888188857  0.4543956156033291
  0.7984278902088324  0.9494066888209705  0.9549670385143620
  0.3516723830659413  0.0484979323072261  0.2120210274011913
  0.3540437836134226  0.0587942642306473  0.7241229149726197
  0.3422259046532372  0.5434535012106695  0.2075532606424822
  0.3459100152326040  0.5425432739996500  0.7069827595824625
  0.8470870664377150  0.0422205481097633  0.2117834880798760
  0.8453103301846716  0.0411471113388204  0.7106685860572476
  0.8497898198362177  0.5479614185460768  0.2136145546014065
  0.8525482473165410  0.5591925391287500  0.7257024473299246
  0.2043973734846870  0.1602811389117078  0.3761273040190802
  0.2084897077604254  0.1475136393598296  0.8788621281637451
  0.1950557550292221  0.6528401379854681  0.3746905563587093
  0.1955601068707588  0.6488798678886759  0.8745616260594749
  0.6950301408161259  0.1443018655684098  0.3800809639794017
  0.6929153091317806  0.1470951658926573  0.8781157431178862
  0.7092756872100895  0.6557668731987462  0.3881934005833664
  0.7056906749715438  0.6449355668591759  0.8795281727449027
  0.4554111991274271  0.3056184761235350  0.0476410804080291
  0.4573076516999606  0.3076995566622023  0.5490312797355830
  0.4522398190325811  0.8038115500858258  0.0409142880716317
  0.4485723015607261  0.8038209254589956  0.5435300898907918
  0.9522610850069311  0.3011047331592240  0.0427375109150148
  0.9531752670793823  0.2950951568316189  0.5431471390190641
  0.9531568257594659  0.8022399475378370  0.0457579850934660
  0.9360720706022394  0.7999377368777104  0.5507355338280672
