Ge Si O 
 1.0000000000000000
     9.9925231717603289    0.0107866900501632    0.0042755445236348
    -4.9869171277497566    8.6149747025495191   -0.0002756919917124
     0.0047007557708973    0.0023810177981980   11.2512364412264194
 Ge  Si  O  
  21   3  48
Direct
 -0.0003970265649347  0.2203591798368323  0.1665832846699601
 -0.0023986494098785  0.2218571976318832  0.6653274121180628
 -0.0009825292952585  0.7279779704635270  0.1700794116209078
  0.0013971455905148  0.7316549310360019  0.6679248971570354
  0.5104403564706207  0.2353111384248916  0.1708352777616471
  0.4989594690848282  0.2262923938688409  0.6705753978128252
  0.4924039725728313  0.7208899012821055  0.1624796712647095
  0.5000186794227746  0.7242117678213472  0.6617080340730266
  0.2781327240074152  0.2721287147883322 -0.0000161910366504
  0.2776426488146348  0.2816952246466513  0.5010286568130077
  0.2682592177714564  0.7721507254113460 -0.0033777691283673
  0.2739169448402109  0.7778387826291980  0.4977358898524670
  0.7781455248223075  0.2760608401810646  0.0002786920932420
  0.7704609268529669  0.2687041087669134  0.4993269593612028
  0.7732582829144075  0.7772202423226829  0.0009778044607622
  0.2300091432439744  0.0086756568670074  0.3331007917409147
  0.2205966557093481  0.4999147461041729  0.3320380044519615
  0.2256966024898467  0.4968692189324680  0.8308109816871668
  0.7219010754931157 -0.0111744438231921  0.3334226042212584
  0.7218861574338138 -0.0004265997620452  0.8325166050224769
  0.7283517261427918  0.5031190441742340  0.8358585464733975
  0.7722226098781358  0.7666230929376429  0.4999365006685493
  0.2275693149678119  0.0012239371637147  0.8330540488277371
  0.7316710165100436  0.5019675237252310  0.3379696536612916
  0.0426651470554332  0.3439039628199347  0.2893591040525670
  0.0458850548030780  0.3438990342842966  0.7887623023391376
  0.0513208971505410  0.8578343373597606  0.2885820357923132
  0.0618042633651851  0.8631118248678993  0.7859351356985257
  0.5657438759162043  0.3638738016458387  0.2907167612775883
  0.5489677377346395  0.3523360858947173  0.7917278365942223
  0.5414906242430698  0.8407833210274420  0.2873087821560957
  0.5454936932606151  0.8445214691494092  0.7866186640576295
  0.1510044560442785  0.1926730331750423  0.1204601206668137
  0.1506168647092923  0.1971027121171184  0.6205636442568093
  0.1471646266043600  0.6974533369992217  0.1207211772652717
  0.1486050646862530  0.7001516510084858  0.6187210749369864
  0.6586264089909470  0.2029686874122658  0.1251344787902540
  0.6492144771676812  0.1977427333308850  0.6236417453224470
  0.6455105572334620  0.6946297180685064  0.1203303038323729
  0.6494841743496436  0.6983278481502749  0.6095381794059705
  0.3022012801394889  0.4604011625831990  0.4557466633645514
  0.3043418058450968  0.4502680726291914  0.9519742253541555
  0.2999702460302441  0.9587821031028360  0.4582237084987277
  0.2907566155799211  0.9470642830366722  0.9460391575896301
  0.7972153742353880  0.4442517098062074  0.4468658616441541
  0.8042491652741791  0.4567574725686566  0.9593009708594840
  0.7939467342267484  0.9294334100497844  0.4507988282949916
  0.7991339535790568  0.9564852426604061  0.9568142721215234
  0.3584837862699620  0.0552542475557462  0.2143335948005967
  0.3473798106949446  0.0511351246201526  0.7218172016214731
  0.3393345241395708  0.5417652677196907  0.2067589518090109
  0.3482554216934496  0.5444715635221363  0.7072902638128311
  0.8480112725348813  0.0404296354202278  0.2119557408153300
  0.8439888865271006  0.0434038824994901  0.7093830016989056
  0.8487631037021457  0.5549268485818181  0.2249794239220957
  0.8540364550464996  0.5510411921514611  0.7150917072731330
  0.2063455022820876  0.1638994931563179  0.3748620248456803
  0.2077036808329723  0.1446444715181770  0.8794004314367319
  0.1960876917684055  0.6550201650757015  0.3744082624535127
  0.1937859164674459  0.6459778596572052  0.8756393791888403
  0.6919809411875792  0.1376933848986076  0.3817584838640745
  0.6961062309515843  0.1530415144140438  0.8775869791133969
  0.7134730108062145  0.6432578415058221  0.3907473818698681
  0.7032181420994850  0.6582765358092281  0.8753494420500280
  0.4589459687705106  0.3081352514896354  0.0485293971695275
  0.4537444601775973  0.3044852998496558  0.5480343491653614
  0.4483655372018495  0.8026077556373401  0.0416640304671088
  0.4526499983491782  0.8053735898150006  0.5425405258082581
  0.9559588892409207  0.2993270376556232  0.0434613605691694
  0.9506096154541505  0.2989246861043092  0.5432471827794699
  0.9500071892831764  0.8015421996738071  0.0470132283037671
  0.9381888765279223  0.7994628424868905  0.5500874553400968
