Ge Si O 
 1.0000000000000000
     9.9985368526121814    0.0114527075963004    0.0062760088729139
    -4.9893496945783227    8.6142943818488664    0.0024987663747871
     0.0068991089652465    0.0071703259602052   11.2512985830141492
 Ge  Si  O  
  21   3  48
Direct
 -0.0044998254641921  0.2208014201797468  0.1700509949438736
  0.0051854333403868  0.2231828157563399  0.6678825042906784
  0.0061822005858600  0.7311737088955981  0.1678775005524289
 -0.0090542911740874  0.7273417089830460  0.6641210774585720
  0.4971782955489450  0.2266173766439462  0.1694731060790345
  0.5021239639248953  0.2223915159274715  0.6662909028098348
  0.5039960792147938  0.7287099576185618  0.1669798035771157
  0.4985706346218698  0.7293269070405913  0.6626986137550354
  0.2715759615385557  0.2745444706484009  0.0006616956831043
  0.2787798980645465  0.2727517255052236  0.4982941654520322
  0.2781543429207550  0.7777137910537825 -0.0007748704331544
  0.2691520848482357  0.7781137402282138  0.4971573247575954
  0.7709780664264325  0.2730527835562414  0.0022027932371098
  0.7774744281921923  0.2665450088480005  0.4997787515028136
  0.7771007487262254  0.7755255785697507  0.0004807389009831
  0.2233163989344932  0.0004336786586384  0.8316897109358176
  0.2262866909716527  0.5002211829694313  0.3331206297985878
  0.2282143068053919  0.5024240637072249  0.8321266385507401
  0.7259031779478582  0.0004872681419136  0.8339625252369349
  0.7291704772410507  0.5005847342761326  0.3363863994277474
  0.7229658933271265  0.4982242246481335  0.8343439620424207
  0.7688090279385938  0.7731890273024187  0.4980281916706960
  0.2257111823077587  0.0030856080470625  0.3321541977262462
  0.7260626711356291 -0.0065926695723367  0.3350743179658182
  0.0470137729711692  0.3483055659897274  0.2900975835960733
  0.0496745859596188  0.3485299896916888  0.7890362338445797
  0.0617050524523146  0.8613166957694746  0.2865589638306120
  0.0426470144767905  0.8509834542648633  0.7870733079012555
  0.5489837282014695  0.3534694295344873  0.2901156029435015
  0.5452049662988024  0.3440415236228872  0.7899932374101571
  0.5605180657413440  0.8559362442080528  0.2874189939543950
  0.5478984858607329  0.8482922873791201  0.7881719110262583
  0.1463267143291637  0.1940767247334723  0.1219902555891402
  0.1556255283490376  0.1946495593373603  0.6213500551493498
  0.1543385606859514  0.6991706058998909  0.1213307674543293
  0.1412747050993388  0.7002516010743054  0.6164529508207823
  0.6467347521479379  0.1963435815258996  0.1243498854958818
  0.6526305144378540  0.1926439572567842  0.6221211207614884
  0.6535987394362172  0.6975300994553943  0.1228947470354008
  0.6493191919387892  0.7072887281879531  0.6093360630760403
  0.3040671524463323  0.4518056809012811  0.4540302483087694
  0.3022170224379732  0.4558708489360768  0.9564014841374718
  0.2905147287857782  0.9524824104134235  0.4461695831142220
  0.3002203317863851  0.9558561144089261  0.9555636191477920
  0.8056460215632942  0.4455007527592691  0.4535514647082241
  0.8005100110183626  0.4537751666643214  0.9575225571625295
  0.7876317828048137  0.9331169833596286  0.4451234638833696
  0.8012729527242388  0.9549228565252250  0.9581366809106867
  0.3449622957017193  0.0521546559141861  0.2207095976142933
  0.3468017236492618  0.0433674292961903  0.7092392214564495
  0.3515273822368053  0.5496552833124171  0.2116127438818806
  0.3500914558496653  0.5479554938600080  0.7085088535832644
  0.8459634526220873  0.0457692756826164  0.2235359229062537
  0.8506201243180895  0.0451558115223681  0.7123658748902610
  0.8540452631753269  0.5534222286981361  0.2146282191519186
  0.8437739535154825  0.5457672711883744  0.7102754060883774
  0.2044030737755978  0.1463214807159493  0.3771544775227066
  0.1978746999646921  0.1540763886073173  0.8760996235294897
  0.1983639551954634  0.6522763534779309  0.3758740211604572
  0.2028826520796753  0.6563853323501161  0.8752559022621410
  0.7041064269436782  0.1350979799731409  0.3822007486565853
  0.6967184501272587  0.1517763699927007  0.8781819386988403
  0.7049906333727888  0.6508016617248172  0.3885466767352943
  0.6990466457241622  0.6533067318540379  0.8770959692800739
  0.4498163812270675  0.3015196447732586  0.0463983756936506
  0.4580832213963547  0.3015178180516496  0.5436325647447999
  0.4575454903278894  0.8074378623382310  0.0452999806323464
  0.4477621209026649  0.8097813432837347  0.5452723601702577
  0.9477096013250184  0.2966267080927664  0.0476980523587685
  0.9573146579514799  0.2970845379411804  0.5443947672588200
  0.9569053758222946  0.8055672929501674  0.0450434151607750
  0.9337787329149314  0.8011645548636753  0.5461228293764403
