opti conp prop
name c00079.vasp
cell
 17.1828 7.51376 10.4477 90 90 90
frac 
Ge core 0.052090000000 0.000000000000 0.372270000000
Ge core 0.447910000000 0.000000000000 0.372270000000
Ge core 0.947910000000 0.000000000000 0.627730000000
Ge core 0.552090000000 0.000000000000 0.627730000000
Ge core 0.556730000000 0.000000000000 0.122130000000
Ge core 0.943270000000 0.000000000000 0.122130000000
Ge core 0.443270000000 0.000000000000 0.877870000000
Ge core 0.056730000000 0.000000000000 0.877870000000
Ge core 0.160190000000 0.293910000000 0.273440000000
Ge core 0.339810000000 0.706090000000 0.273440000000
Ge core 0.839810000000 0.293910000000 0.726560000000
Ge core 0.660190000000 0.706090000000 0.726560000000
Ge core 0.839810000000 0.706090000000 0.726560000000
Ge core 0.660190000000 0.293910000000 0.726560000000
Ge core 0.660660000000 0.294090000000 0.017440000000
Ge core 0.839340000000 0.705910000000 0.017440000000
Ge core 0.339340000000 0.705910000000 0.982560000000
Ge core 0.160660000000 0.294090000000 0.982560000000
Ge core 0.660660000000 0.705910000000 0.017440000000
Ge core 0.839340000000 0.294090000000 0.017440000000
Si core 0.160190000000 0.706090000000 0.273440000000
Si core 0.339810000000 0.293910000000 0.273440000000
Si core 0.339340000000 0.294090000000 0.982560000000
Si core 0.160660000000 0.705910000000 0.982560000000
O1 core 0.106570000000 0.174340000000 0.366200000000
O1 core 0.393430000000 0.825660000000 0.366200000000
O1 core 0.893430000000 0.174340000000 0.633800000000
O1 core 0.606570000000 0.825660000000 0.633800000000
O1 core 0.893430000000 0.825660000000 0.633800000000
O1 core 0.606570000000 0.174340000000 0.633800000000
O3 core 0.106570000000 0.825660000000 0.366200000000
O3 core 0.393430000000 0.174340000000 0.366200000000
O1 core 0.000000000000 0.000000000000 0.500000000000
O1 core 0.500000000000 0.000000000000 0.500000000000
O1 core 0.994520000000 0.000000000000 0.250840000000
O1 core 0.505480000000 0.000000000000 0.250840000000
O1 core 0.005480000000 0.000000000000 0.749160000000
O1 core 0.494520000000 0.000000000000 0.749160000000
O1 core 0.610230000000 0.175520000000 0.115390000000
O1 core 0.889770000000 0.824480000000 0.115390000000
O3 core 0.389770000000 0.175520000000 0.884610000000
O3 core 0.110230000000 0.824480000000 0.884610000000
O1 core 0.389770000000 0.824480000000 0.884610000000
O1 core 0.110230000000 0.175520000000 0.884610000000
O1 core 0.610230000000 0.824480000000 0.115390000000
O1 core 0.889770000000 0.175520000000 0.115390000000
O1 core 0.500000000000 0.000000000000 0.000000000000
O1 core 0.000000000000 0.000000000000 0.000000000000
O3 core 0.151750000000 0.500000000000 0.313330000000
O3 core 0.348250000000 0.500000000000 0.313330000000
O1 core 0.848250000000 0.500000000000 0.686670000000
O1 core 0.651750000000 0.500000000000 0.686670000000
O3 core 0.250000000000 0.234950000000 0.285720000000
O3 core 0.250000000000 0.765050000000 0.285720000000
O1 core 0.750000000000 0.234950000000 0.714280000000
O1 core 0.750000000000 0.765050000000 0.714280000000
O1 core 0.131410000000 0.268650000000 0.127790000000
O1 core 0.368590000000 0.731350000000 0.127790000000
O1 core 0.868590000000 0.268650000000 0.872210000000
O1 core 0.631410000000 0.731350000000 0.872210000000
O1 core 0.868590000000 0.731350000000 0.872210000000
O1 core 0.631410000000 0.268650000000 0.872210000000
O2 core 0.131410000000 0.731350000000 0.127790000000
O2 core 0.368590000000 0.268650000000 0.127790000000
O1 core 0.653920000000 0.500000000000 0.058200000000
O1 core 0.846080000000 0.500000000000 0.058200000000
O3 core 0.346080000000 0.500000000000 0.941800000000
O3 core 0.153920000000 0.500000000000 0.941800000000
O1 core 0.750000000000 0.231060000000 0.027050000000
O1 core 0.750000000000 0.768940000000 0.027050000000
O3 core 0.250000000000 0.231060000000 0.972950000000
O3 core 0.250000000000 0.768940000000 0.972950000000

space
P 1

species
Ge core  Ge core
Si core  Si core
O1 core  O1 core
O2 core  O2 core
O3 core  O3 core
O1 shel  O1 shel
O2 shel  O2 shel
O3 shel  O3 shel
end
library Germanate
switch_minimiser rfo gnorm 0.05
stepmx opt 0.1
dump every 1 c00079.vasp.grs
output cif c00079.vasp.cif
