Ge Si O 
 1.0000000000000000
     9.9934708020707319   -0.0000001707345872    0.0000000217712958
    -4.9967355468616281    8.6305392139117085    0.0035844434308910
     0.0000000457233237    0.0045349618853433   11.3029251155903605
 Ge  Si  O  
  23   1  48
Direct
 -0.0022496232358321  0.2261469540701784  0.1655292207160702
 -0.0005580340166280  0.2236084733977986  0.6666405259051914
  0.0018415593897737  0.7251072475946677  0.1678766545877105
 -0.0009281534776663  0.7266359152961001  0.6699477130808644
  0.4994418240530403  0.2254216646075810  0.1669024688834848
  0.5063625765698512  0.2312118744229113  0.6682050164489771
  0.4996203623624863  0.7229580075253420  0.1650677789443031
  0.4963668597846895  0.7211368882244374  0.6651691656537502
  0.2752299772681795  0.2788631168417092  0.0014974982751029
  0.2766623582402218  0.2770419975303197  0.5015988892013726
  0.2758334970882101  0.7763915306920152  0.0000261405032435
  0.2716034291834775  0.7738530534323448  0.5011374394727237
  0.7724359336254175  0.2733640938407361 -0.0032810523003979
  0.7767343217072683  0.2748927614346668  0.4987900100500170
  0.7751506972981501  0.7687881291809364 -0.0015383555477725
  0.7740201611565599  0.7745783432568111  0.4997641904853183
  0.2251031015276220  0.0009409480850952  0.3345252892803071
  0.2284799802885258  0.0049899973824673  0.8346406358825968
  0.2236252115589176  0.4999999956323071  0.3333333357106112
  0.2215990998352041  0.4999999976708270  0.8333333334495679
  0.7241621521924606 -0.0009409505190639  0.3321413721476771
  0.7234899796225456 -0.0049900028117422  0.8320260288467107
  0.7260853239926233  0.4999999939948785  0.3333333336640751
  0.7290048273019780  0.4999999919757279  0.8333333345186711
  0.0441305636491387  0.3482310005459959  0.2885175891386939
  0.0428755806728078  0.3461423275883076  0.7893433193866348
  0.0461602515423010  0.8481076704512949  0.2900713916638651
  0.0493693282653224  0.8547544974021982  0.7889937887000391
  0.5468451883872584  0.3471378500842232  0.2901431283291139
  0.5641572056404361  0.3594530985480963  0.7874948739732394
  0.5458933133211836  0.8455909592796592  0.2877926211383726
  0.5443292856084172  0.8420862111372787  0.7888198853118944
  0.1498590614050492  0.1990512566401874  0.1220085571736937
  0.1525571209647617  0.1978793065050042  0.6231423174076182
  0.1539423836010518  0.6985998727597537  0.1230153227905328
  0.1483821212570613  0.6964387518362731  0.6234566934317917
  0.6510213826492277  0.1995173490389874  0.1200347494266678
  0.6542045837800788  0.1992864692738120  0.6212767901808792
  0.6491276887682974  0.6926756042651048  0.1192687396275353
  0.6485260848481077  0.6951748476399645  0.6203322498526529
  0.3014906522392854  0.4552244283053368  0.4558122031022626
  0.3002535368502728  0.4572559690581934  0.9564471190442472
  0.3000091164860628  0.9540578068360406  0.4576117129528461
  0.3027261910130384  0.9563286633108138  0.9572800604979583
  0.8033333802933262  0.4548240287475832  0.4560463970232601
  0.7956077594701683  0.4478858755935950  0.9448889833208068
  0.8018888137254777  0.9540585609023551  0.4545001316343349
  0.8022175483060892  0.9471712660041692  0.9518428173440174
  0.3478302377019094  0.0459414476422934  0.2121665170995357
  0.3550462751423962  0.0528287374171743  0.7148238389841143
  0.3462662177737063  0.5447755794853697  0.2108544646717677
  0.3429975607637598  0.5427440367164308  0.7102195427217731
  0.8459512981926621  0.0459422015983960  0.2090549416707462
  0.8463975159807050  0.0436713457149781  0.7093865999115444
  0.8485093507784865  0.5451759758832495  0.2106202714635594
  0.8477218866124742  0.5521141351403852  0.7217776904305749
  0.2003023634714438  0.1544090369083260  0.3788740494111767
  0.2022430766245436  0.1579137812154827  0.8778467836496776
  0.1958995484324975  0.6517689762101195  0.3781490890839436
  0.1967332440226470  0.6538576569231895  0.8773233545753455
  0.6980525809251243  0.1518923147147069  0.3765952876678155
  0.6946148301794414  0.1452454858691307  0.8776728901654107
  0.6997073383337913  0.6528621326552974  0.3765235456209886
  0.7047041185222466  0.6405468860723291  0.8791718030599859
  0.4533512488966658  0.3048251649226404  0.0463344134853094
  0.4564520933455918  0.3073244029047954  0.5473979267232426
  0.4546778200694993  0.8021206950988916  0.0435243518392834
  0.4508078062744436  0.8009487428290069  0.5446581091907493
  0.9519433671787069  0.3035612551233757  0.0432099754740497
  0.9553425146677538  0.3014001309418944  0.5436513496373436
  0.9549181051483245  0.8007135305003446  0.0453898802929733
  0.9515040348988295  0.8004826529967007  0.5466319128550921
