Si O 
 1.0000000000000000
     9.8634537324262084   -0.0000187366172133    0.0000422825414236
    -4.9317430926002022    8.5419924344475078   -0.0000421201724214
     0.0000464435240704   -0.0000266081763251   10.8774080193311917
 Si  O  
  24  48
Direct
 -0.0000199878005224  0.2348707004487764  0.1666408132875040
 -0.0000199878000150  0.2348707004488833  0.6666408132875705
 -0.0000199878008336  0.7348707004476420  0.1666408132877142
 -0.0000199878008250  0.7348707004482629  0.6666408132874837
  0.4999800121996401  0.2348707004487701  0.1666408132873092
  0.4999800121996929  0.2348707004490148  0.6666408132872469
  0.4999800121994337  0.7348707004478831  0.1666408132874477
  0.4999800121995109  0.7348707004483955  0.6666408132874797
  0.2651015319512236  0.2651015338915224 -0.0000000306354766
  0.2651015319513462  0.2651015338915220  0.4999999693647076
  0.2651015319508674  0.7651015338901223 -0.0000000306353728
  0.2651015319508786  0.7651015338905053  0.4999999693645265
  0.7651015319509897  0.2651015338910256 -0.0000000306357198
  0.7651015319516349  0.2651015338917366  0.4999999693645488
  0.7651015319510102  0.7651015338908572 -0.0000000306356537
  0.7651015319505551  0.7651015338907432  0.4999999693645954
  0.2348707493016373 -0.0000199858629156  0.3333592173692594
  0.2348707493020028 -0.0000199858628204  0.8333592173691927
  0.2348707493019339  0.4999800141363329  0.3333592173691658
  0.2348707493019966  0.4999800141367346  0.8333592173688102
  0.7348707493012210 -0.0000199858634197  0.3333592173689833
  0.7348707493014932 -0.0000199858631188  0.8333592173685722
  0.7348707493013965  0.4999800141367618  0.3333592173692903
  0.7348707493015632  0.4999800141367338  0.8333592173690914
  0.0732731399053818  0.3658907837573448  0.2737878509435747
  0.0732731399053847  0.3658907837580013  0.7737878509431511
  0.0732731399056139  0.8658907837555602  0.2737878509444183
  0.0732731399055158  0.8658907837562017  0.7737878509442793
  0.5732731399054094  0.3658907837574406  0.2737878509432911
  0.5732731399050968  0.3658907837573179  0.7737878509435627
  0.5732731399046006  0.8658907837557485  0.2737878509443948
  0.5732731399046473  0.8658907837559873  0.7737878509444598
  0.1340876728901359  0.2073033564302367  0.1071577817831671
  0.1340876728899235  0.2073033564295105  0.6071577817830482
  0.1340876728891748  0.7073033564284504  0.1071577817828510
  0.1340876728894128  0.7073033564292409  0.6071577817828395
  0.6340876728899059  0.2073033564299592  0.1071577817827751
  0.6340876728891340  0.2073033564294582  0.6071577817820076
  0.6340876728891265  0.7073033564284683  0.1071577817824638
  0.6340876728890240  0.7073033564282195  0.6071577817829857
  0.2926964495974743  0.4267963521500774  0.4405286566402142
  0.2926964495965258  0.4267963521497953  0.9405286566400431
  0.2926964495959540  0.9267963521484333  0.4405286566393208
  0.2926964495966720  0.9267963521483584  0.9405286566391007
  0.7926964495971146  0.4267963521502088  0.4405286566401340
  0.7926964495964381  0.4267963521494609  0.9405286566399248
  0.7926964495964175  0.9267963521486541  0.4405286566389892
  0.7926964495959110  0.9267963521484567  0.9405286566387544
  0.3658908238813698  0.0732730673138877  0.2262121733317804
  0.3658908238813380  0.0732730673137428  0.7262121733312865
  0.3658908238808246  0.5732730673124601  0.2262121733310735
  0.3658908238812650  0.5732730673127252  0.7262121733310327
  0.8658908238810352  0.0732730673137780  0.2262121733316689
  0.8658908238816955  0.0732730673135245  0.7262121733314914
  0.8658908238801764  0.5732730673121423  0.2262121733309938
  0.8658908238804831  0.5732730673122091  0.7262121733307173
  0.2073034117712318  0.1340877994356758  0.3928420500144293
  0.2073034117711380  0.1340877994359252  0.8928420500138764
  0.2073034117701900  0.6340877994331306  0.3928420500156562
  0.2073034117696129  0.6340877994329966  0.8928420500155131
  0.7073034117718587  0.1340877994351192  0.3928420500151194
  0.7073034117707613  0.1340877994348665  0.8928420500143300
  0.7073034117695346  0.6340877994338393  0.3928420500151942
  0.7073034117696134  0.6340877994336958  0.8928420500151319
  0.4267962085051457  0.2926963924411581  0.0594714872662379
  0.4267962085053639  0.2926963924420817  0.5594714872665996
  0.4267962085054207  0.7926963924411939  0.0594714872665135
  0.4267962085053320  0.7926963924415690  0.5594714872666386
  0.9267962085046196  0.2926963924407412  0.0594714872665282
  0.9267962085049546  0.2926963924411637  0.5594714872670354
  0.9267962085048747  0.7926963924406826  0.0594714872666805
  0.9267962085049569  0.7926963924416590  0.5594714872666381
