LAMMPS data file generated by SOD - configuration 00001
 
120 atoms
48 bonds
144 angles
4 atom types
1 bond types
1 angle types
 
      0.000000       10.055564  xlo xhi
      0.000000        8.708374  ylo yhi
      0.000000       11.037836  zlo zhi
     -5.027782        0.000000        0.000000  xy xz yz
 
Atoms  # full
 
1  0  2    0.0000       -1.199855        2.078210        1.839639
2  0  2    0.0000       -1.199855        2.078210        7.358557
3  0  2    0.0000       -3.713746        6.432397        1.839639
4  0  2    0.0000       -3.713746        6.432397        7.358557
5  0  2    0.0000        3.827927        2.078210        1.839639
6  0  2    0.0000        3.827927        2.078210        7.358557
7  0  2    0.0000        1.314036        6.432397        1.839639
8  0  2    0.0000        1.314036        6.432397        7.358557
9  0  2    0.0000        1.314036        2.275977        0.000002
10  0  2    0.0000        1.314036        2.275977        5.518920
11  0  2    0.0000       -1.199855        6.630164        0.000002
12  0  2    0.0000       -1.199855        6.630164        5.518920
13  0  2    0.0000        6.341818        2.275977        0.000002
14  0  2    0.0000        6.341818        2.275977        5.518920
15  0  2    0.0000        3.827927        6.630164        0.000002
16  0  2    0.0000        3.827927        6.630164        5.518920
17  0  2    0.0000        2.399710        0.000000        3.679277
18  0  2    0.0000        2.399710        0.000000        9.198195
19  0  2    0.0000       -0.114181        4.354187        3.679277
20  0  2    0.0000       -0.114181        4.354187        9.198195
21  0  2    0.0000        7.427492        0.000000        3.679277
22  0  2    0.0000        7.427492        0.000000        9.198195
23  0  2    0.0000        4.913601        4.354187        3.679277
24  0  2    0.0000        4.913601        4.354187        9.198195
25  1  3    0.0000       -1.066450        3.246930        2.965500
26  1  4    0.0000       -1.066450        3.246930        2.965500
27  2  3    0.0000       -1.066450        3.246930        8.484418
28  2  4    0.0000       -1.066450        3.246930        8.484418
29  3  3    0.0000       -3.580341        7.601117        2.965500
30  3  4    0.0000       -3.580341        7.601117        2.965500
31  4  3    0.0000       -3.580341        7.601117        8.484418
32  4  4    0.0000       -3.580341        7.601117        8.484418
33  5  3    0.0000        3.961332        3.246930        2.965500
34  5  4    0.0000        3.961332        3.246930        2.965500
35  6  3    0.0000        3.961332        3.246930        8.484418
36  6  4    0.0000        3.961332        3.246930        8.484418
37  7  3    0.0000        1.447441        7.601117        2.965500
38  7  4    0.0000        1.447441        7.601117        2.965500
39  8  3    0.0000        1.447441        7.601117        8.484418
40  8  4    0.0000        1.447441        7.601117        8.484418
41  9  3    0.0000        0.235192        1.807149        1.125863
42  9  4    0.0000        0.235192        1.807149        1.125863
43  10  3    0.0000        0.235192        1.807149        6.644781
44  10  4    0.0000        0.235192        1.807149        6.644781
45  11  3    0.0000       -2.278699        6.161336        1.125863
46  11  4    0.0000       -2.278699        6.161336        1.125863
47  12  3    0.0000       -2.278699        6.161336        6.644781
48  12  4    0.0000       -2.278699        6.161336        6.644781
49  13  3    0.0000        5.262974        1.807149        1.125863
50  13  4    0.0000        5.262974        1.807149        1.125863
51  14  3    0.0000        5.262974        1.807149        6.644781
52  14  4    0.0000        5.262974        1.807149        6.644781
53  15  3    0.0000        2.749083        6.161336        1.125863
54  15  4    0.0000        2.749083        6.161336        1.125863
55  16  3    0.0000        2.749083        6.161336        6.644781
56  16  4    0.0000        2.749083        6.161336        6.644781
57  17  3    0.0000        0.831258        3.654295        4.805138
58  17  4    0.0000        0.831258        3.654295        4.805138
59  18  3    0.0000        0.831258        3.654295       10.324056
60  18  4    0.0000        0.831258        3.654295       10.324056
61  19  3    0.0000       -1.682633        8.008482        4.805138
62  19  4    0.0000       -1.682633        8.008482        4.805138
63  20  3    0.0000       -1.682633        8.008482       10.324056
64  20  4    0.0000       -1.682633        8.008482       10.324056
65  21  3    0.0000        5.859040        3.654295        4.805138
66  21  4    0.0000        5.859040        3.654295        4.805138
67  22  3    0.0000        5.859040        3.654295       10.324056
68  22  4    0.0000        5.859040        3.654295       10.324056
69  23  3    0.0000        3.345149        8.008482        4.805138
70  23  4    0.0000        3.345149        8.008482        4.805138
71  24  3    0.0000        3.345149        8.008482       10.324056
72  24  4    0.0000        3.345149        8.008482       10.324056
73  25  3    0.0000        3.345149        0.699892        2.553418
74  25  4    0.0000        3.345149        0.699892        2.553418
75  26  3    0.0000        3.345149        0.699892        8.072336
76  26  4    0.0000        3.345149        0.699892        8.072336
77  27  3    0.0000        0.831258        5.054079        2.553418
78  27  4    0.0000        0.831258        5.054079        2.553418
79  28  3    0.0000        0.831258        5.054079        8.072336
80  28  4    0.0000        0.831258        5.054079        8.072336
81  29  3    0.0000        8.372931        0.699892        2.553418
82  29  4    0.0000        8.372931        0.699892        2.553418
83  30  3    0.0000        8.372931        0.699892        8.072336
84  30  4    0.0000        8.372931        0.699892        8.072336
85  31  3    0.0000        5.859040        5.054079        2.553418
86  31  4    0.0000        5.859040        5.054079        2.553418
87  32  3    0.0000        5.859040        5.054079        8.072336
88  32  4    0.0000        5.859040        5.054079        8.072336
89  33  3    0.0000        1.447441        1.107257        4.393055
90  33  4    0.0000        1.447441        1.107257        4.393055
91  34  3    0.0000        1.447441        1.107257        9.911973
92  34  4    0.0000        1.447441        1.107257        9.911973
93  35  3    0.0000       -1.066450        5.461444        4.393055
94  35  4    0.0000       -1.066450        5.461444        4.393055
95  36  3    0.0000       -1.066450        5.461444        9.911973
96  36  4    0.0000       -1.066450        5.461444        9.911973
97  37  3    0.0000        6.475223        1.107257        4.393055
98  37  4    0.0000        6.475223        1.107257        4.393055
99  38  3    0.0000        6.475223        1.107257        9.911973
100  38  4    0.0000        6.475223        1.107257        9.911973
101  39  3    0.0000        3.961332        5.461444        4.393055
102  39  4    0.0000        3.961332        5.461444        4.393055
103  40  3    0.0000        3.961332        5.461444        9.911973
104  40  4    0.0000        3.961332        5.461444        9.911973
105  41  3    0.0000        2.749083        2.547038        0.713780
106  41  4    0.0000        2.749083        2.547038        0.713780
107  42  3    0.0000        2.749083        2.547038        6.232698
108  42  4    0.0000        2.749083        2.547038        6.232698
109  43  3    0.0000        0.235192        6.901225        0.713780
110  43  4    0.0000        0.235192        6.901225        0.713780
111  44  3    0.0000        0.235192        6.901225        6.232698
112  44  4    0.0000        0.235192        6.901225        6.232698
113  45  3    0.0000        7.776865        2.547038        0.713780
114  45  4    0.0000        7.776865        2.547038        0.713780
115  46  3    0.0000        7.776865        2.547038        6.232698
116  46  4    0.0000        7.776865        2.547038        6.232698
117  47  3    0.0000        5.262974        6.901225        0.713780
118  47  4    0.0000        5.262974        6.901225        0.713780
119  48  3    0.0000        5.262974        6.901225        6.232698
120  48  4    0.0000        5.262974        6.901225        6.232698
 
Bonds
 
1  1  25  26
2  1  27  28
3  1  29  30
4  1  31  32
5  1  33  34
6  1  35  36
7  1  37  38
8  1  39  40
9  1  41  42
10  1  43  44
11  1  45  46
12  1  47  48
13  1  49  50
14  1  51  52
15  1  53  54
16  1  55  56
17  1  57  58
18  1  59  60
19  1  61  62
20  1  63  64
21  1  65  66
22  1  67  68
23  1  69  70
24  1  71  72
25  1  73  74
26  1  75  76
27  1  77  78
28  1  79  80
29  1  81  82
30  1  83  84
31  1  85  86
32  1  87  88
33  1  89  90
34  1  91  92
35  1  93  94
36  1  95  96
37  1  97  98
38  1  99  100
39  1  101  102
40  1  103  104
41  1  105  106
42  1  107  108
43  1  109  110
44  1  111  112
45  1  113  114
46  1  115  116
47  1  117  118
48  1  119  120
 
Angles
 
1  1  26  1  42
2  1  26  1  82
3  1  26  1  114
4  1  42  1  82
5  1  42  1  114
6  1  82  1  114
7  1  28  2  44
8  1  28  2  84
9  1  28  2  116
10  1  44  2  84
11  1  44  2  116
12  1  84  2  116
13  1  30  3  46
14  1  30  3  86
15  1  30  3  118
16  1  46  3  86
17  1  46  3  118
18  1  86  3  118
19  1  32  4  48
20  1  32  4  88
21  1  32  4  120
22  1  48  4  88
23  1  48  4  120
24  1  88  4  120
25  1  34  5  50
26  1  34  5  74
27  1  34  5  106
28  1  50  5  74
29  1  50  5  106
30  1  74  5  106
31  1  36  6  52
32  1  36  6  76
33  1  36  6  108
34  1  52  6  76
35  1  52  6  108
36  1  76  6  108
37  1  38  7  54
38  1  38  7  78
39  1  38  7  110
40  1  54  7  78
41  1  54  7  110
42  1  78  7  110
43  1  40  8  56
44  1  40  8  80
45  1  40  8  112
46  1  56  8  80
47  1  56  8  112
48  1  80  8  112
49  1  42  9  60
50  1  42  9  92
51  1  42  9  106
52  1  60  9  92
53  1  60  9  106
54  1  92  9  106
55  1  44  10  58
56  1  44  10  90
57  1  44  10  108
58  1  58  10  90
59  1  58  10  108
60  1  90  10  108
61  1  46  11  64
62  1  46  11  96
63  1  46  11  110
64  1  64  11  96
65  1  64  11  110
66  1  96  11  110
67  1  48  12  62
68  1  48  12  94
69  1  48  12  112
70  1  62  12  94
71  1  62  12  112
72  1  94  12  112
73  1  50  13  68
74  1  50  13  100
75  1  50  13  114
76  1  68  13  100
77  1  68  13  114
78  1  100  13  114
79  1  52  14  66
80  1  52  14  98
81  1  52  14  116
82  1  66  14  98
83  1  66  14  116
84  1  98  14  116
85  1  54  15  72
86  1  54  15  104
87  1  54  15  118
88  1  72  15  104
89  1  72  15  118
90  1  104  15  118
91  1  56  16  70
92  1  56  16  102
93  1  56  16  120
94  1  70  16  102
95  1  70  16  120
96  1  102  16  120
97  1  30  17  62
98  1  30  17  74
99  1  30  17  90
100  1  62  17  74
101  1  62  17  90
102  1  74  17  90
103  1  32  18  64
104  1  32  18  76
105  1  32  18  92
106  1  64  18  76
107  1  64  18  92
108  1  76  18  92
109  1  26  19  58
110  1  26  19  78
111  1  26  19  94
112  1  58  19  78
113  1  58  19  94
114  1  78  19  94
115  1  28  20  60
116  1  28  20  80
117  1  28  20  96
118  1  60  20  80
119  1  60  20  96
120  1  80  20  96
121  1  38  21  70
122  1  38  21  82
123  1  38  21  98
124  1  70  21  82
125  1  70  21  98
126  1  82  21  98
127  1  40  22  72
128  1  40  22  84
129  1  40  22  100
130  1  72  22  84
131  1  72  22  100
132  1  84  22  100
133  1  34  23  66
134  1  34  23  86
135  1  34  23  102
136  1  66  23  86
137  1  66  23  102
138  1  86  23  102
139  1  36  24  68
140  1  36  24  88
141  1  36  24  104
142  1  68  24  88
143  1  68  24  104
144  1  88  24  104
