Ge Si O 
 1.0000000000000000
     9.9011842448354717    0.0231835441314137    0.0097490765722762
    -4.9305145813500051    8.5399017096373218   -0.0000000160946508
     0.0107596390177943    0.0062120566293683   10.9032846520176161
 Ge  Si  O  
   2  22  48
Direct
 -0.0000000572307504  0.2345882043410491  0.1666666771925207
 -0.0000000572307561  0.7345882043410485  0.1666666771925207
 -0.0000000640870541  0.2357021847580881  0.6666666449469477
 -0.0000000640870560  0.7357021847580839  0.6666666449469509
  0.5000000411134775  0.2325650906729311  0.1666667135379283
  0.5000000531246214  0.2347763030571193  0.6666666700518050
  0.5000000411134741  0.7325650906729220  0.1666667135379319
  0.5000000531246164  0.7347763030571165  0.6666666700518038
  0.2702601538275057  0.2645982624395276 -0.0006001881239484
  0.2670450852554044  0.2695398206911881  0.5004043394443681
  0.2702601538275064  0.7645982624395258 -0.0006001881239507
  0.2670450852554040  0.7695398206911876  0.5004043394443590
  0.7627902569722140  0.2669866553880604 -0.0015268950474134
  0.7632552773767032  0.2622936819410698  0.5001261304165177
  0.7627902569722100  0.7669866553880553 -0.0015268950474156
  0.7632552773767060  0.7622936819410692  0.5001261304165109
  0.2372097614758148  0.0041964033704995  0.3348602187785106
  0.2367447001118289 -0.0009616173788985  0.8332071536973531
  0.2372097614758068  0.5041964033704883  0.3348602187785152
  0.2367447001118206  0.4990383826210898  0.8332071536973541
  0.7297399040099900 -0.0056618303164371  0.3339335891560886
  0.7329549080172066  0.0024947478846316  0.8329290358710231
  0.7297399040099894  0.4943381696835552  0.3339335891560903
  0.7329549080172009  0.5024947478846271  0.8329290358710231
  0.0698814669863689  0.3707480422604704  0.2843968341229079
  0.0762189114314479  0.3676185819336666  0.7723401142152697
  0.0698814669863733  0.8707480422604756  0.2843968341229073
  0.0762189114314522  0.8676185819336668  0.7723401142152752
  0.5673837004388732  0.3600396246054420  0.2765525491522599
  0.5744410800958949  0.3677909981907244  0.7717117918217693
  0.5673837004388690  0.8600396246054381  0.2765525491522647
  0.5744410800958910  0.8677909981907271  0.7717117918217704
  0.1448017490379031  0.2026377840114886  0.1101783434439924
  0.1326588849598324  0.2082239572676770  0.6046968956363376
  0.1448017490379002  0.7026377840114827  0.1101783434439940
  0.1326588849598330  0.7082239572676771  0.6046968956363330
  0.6366580191587252  0.2071136357575027  0.1093571900661105
  0.6314416950728403  0.2044763891122580  0.6061346391985546
  0.6366580191587249  0.7071136357574952  0.1093571900661128
  0.6314416950728410  0.7044763891122530  0.6061346391985540
  0.2964006530738869  0.4330408923815015  0.4427032722068860
  0.2923806375783479  0.4246401565282121  0.9407714640401447
  0.2964006530738891  0.9330408923815046  0.4427032722068812
  0.2923806375783500  0.9246401565282187  0.9407714640401484
  0.7889011816229087  0.4233437680577022  0.4412373964022948
  0.7863277751711846  0.4285151077452820  0.9419380554441708
  0.7889011816229113  0.9233437680577091  0.4412373964022955
  0.7863277751711781  0.9285151077452812  0.9419380554441782
  0.3633419486975117  0.0704555627965994  0.2239760611387238
  0.3685583544089909  0.0730346990090400  0.7271986338071075
  0.3633419486975039  0.5704555627965909  0.2239760611387287
  0.3685583544089837  0.5730346990090363  0.7271986338071103
  0.8551981793531326  0.0578359813133940  0.2231550177604128
  0.8673410971701211  0.0755650380451266  0.7286364852256886
  0.8551981793531284  0.5578359813133918  0.2231550177604150
  0.8673410971701140  0.5755650380451202  0.7286364852256898
  0.2136721719282008  0.1421873462711210  0.3913952423224602
  0.2110987493800999  0.1344425990038335  0.8920958971671883
  0.2136721719282012  0.6421873462711190  0.3913952423224522
  0.2110987493801025  0.6344425990038314  0.8920958971671824
  0.7076194012894004  0.1322595229864957  0.3925618931822660
  0.7035993907084083  0.1366402592196992  0.8906300778180235
  0.7076194012893982  0.6322595229864895  0.3925618931822599
  0.7035993907084094  0.6366402592196972  0.8906300778180203
  0.4326164267329402  0.2926559309838232  0.0567807969187889
  0.4255589479211407  0.2933499230008917  0.5616215610195812
  0.4326164267329475  0.7926559309838291  0.0567807969187904
  0.4255589479211468  0.7933499230009001  0.5616215610195736
  0.9301185430156934  0.3008665971449489  0.0489364911779471
  0.9237810147977755  0.2913996955226702  0.5609932067870469
  0.9301185430156923  0.8008665971449516  0.0489364911779447
  0.9237810147977852  0.7913996955226813  0.5609932067870449
