Ge Si O 
 1.0000000000000000
     9.9008360716925541   -0.0000000354616728    0.0000000138822948
    -4.9504180655699299    8.5512072627714666    0.0032671186852585
     0.0000000152516580    0.0041901036320265   10.9033270075394046
 Ge  Si  O  
   2  22  48
Direct
 -0.0035942927035392  0.2311851753027407  0.1648076268813092
  0.7652205432343553  0.7688148256192926  0.0018590354390479
 -0.0010037770067663  0.2347992041028844  0.6652634441908314
  0.0059548154749889  0.7362062359690645  0.1669497224078464
  0.0000395418146817  0.7372825293293850  0.6670386294389821
  0.5047774736146162  0.2377663324899773  0.1657458579532514
  0.4989350614850713  0.2316443191869415  0.6647002177533711
  0.4938844202534892  0.7295770639872534  0.1711555836265183
  0.5006399753342465  0.7352412721953442  0.6691242718321918
  0.2697485818604674  0.2637937602454597 -0.0002830559287248
  0.2627570289547458  0.2627174689156496  0.4996280435356339
  0.2670111353387267  0.7622336658365881  0.0009208130081762
  0.2672907543231832  0.7683556821343525  0.5019664609404472
  0.7643073615666044  0.2704229460468748 -0.0044889184694125
  0.7653986988649933  0.2647587247232295  0.4975423981958206
  0.7641970265433544  0.7652007934250540  0.5014032251181659
  0.2397122696530229  0.0022040671404003  0.3328375580972380
  0.2375082041639301 -0.0022040796748318  0.8338291088146331
  0.2302118709372968  0.4982070476993757  0.3371992870535543
  0.2353963242188854  0.4977550616885871  0.8339981357032176
  0.7272209573504919 -0.0061799824561680  0.3335029703355154
  0.7334009278645718  0.0061799747523779  0.8331637014546245
  0.7376412650760956  0.5022449418080681  0.3326685326737872
  0.7320048151009733  0.5017929397614987  0.8294673796163465
  0.0631291868412099  0.3648737983816212  0.2848954469506681
  0.0755656196779265  0.3659694458022830  0.7715614259989604
  0.0794474637034817  0.8664376776843525  0.2740201166947759
  0.0742356907846108  0.8661797883872189  0.7752266431881716
  0.5768153874168038  0.3692364591274547  0.2721555605317788
  0.5734298024514267  0.3642515419224400  0.7698836877388109
  0.5616373389163850  0.8584024907510655  0.2802829443726025
  0.5744592769618609  0.8654634573838416  0.7765712034316323
  0.1430642375143337  0.2010899177227122  0.1099070130663537
  0.1296734505082091  0.2034926405810980  0.6047580861274425
  0.1385693928504237  0.7054503238944847  0.1095765397517220
  0.1342755490936161  0.7118388995255678  0.6067747807076601
  0.6391286839955073  0.2104022396256687  0.1069196208031499
  0.6321340612629922  0.2056078906613082  0.6026044300472589
  0.6294153999488559  0.6986139528051100  0.1201157458830143
  0.6325863392020211  0.7069612757982935  0.6075257725647671
  0.2914870444480726  0.4255366963088437  0.4419017014558607
  0.2911714386993874  0.4231628248465236  0.9410196005111487
  0.2977266065679895  0.9301132832019403  0.4405671500702333
  0.2940985880841860  0.9231064428519004  0.9403112417255748
  0.7945711698562780  0.4267423349417270  0.4381307960363574
  0.7878605928294005  0.4325778527596154  0.9404849017856568
  0.7886618079735011  0.9249829125362959  0.4408935185495514
  0.7959138765212574  0.9462827631772565  0.9464974256679493
  0.3709921248544827  0.0768935452653032  0.2263554108860111
  0.3676133019292304  0.0698867178117542  0.7260995058790591
  0.3552827250586398  0.5674221392695108  0.2261817454870293
  0.3678288136602262  0.5732576678734712  0.7285358556352014
  0.8496310879318683  0.0537172321500656  0.2201692220839012
  0.8636788694256784  0.0750170772478530  0.7257731385649039
  0.8680085945877791  0.5768371762506775  0.2256470513730169
  0.8659503251533330  0.5744632978721632  0.7247649593491248
  0.2080559006924835  0.1338202090386842  0.3914400259231714
  0.2130097843994854  0.1335623056226252  0.8926465539825960
  0.2091782493117554  0.6357484502617976  0.3967829831427231
  0.2075789310169626  0.6307635341605903  0.8945111214346464
  0.7089958047116698  0.1345365313497719  0.3900954641838991
  0.7032348561938776  0.1415974996260211  0.8863837429817439
  0.7095961727335054  0.6340305518571726  0.3951052471531711
  0.6982553953489227  0.6351261860252729  0.8817712285358691
  0.4331190879194003  0.2945497003374239  0.0570901285889562
  0.4224366684359528  0.2881611171186479  0.5598918948060312
  0.4287264415728846  0.7895977682004028  0.0597470448790291
  0.4265261998601153  0.7943921345790460  0.5640622411750433
  0.9308014400748990  0.3013860490000906  0.0465509223498518
  0.9256250871893048  0.2930387546578564  0.5591408848144626
  0.9419743227917829  0.7989100922983048  0.0567596648471780
  0.9261808257155673  0.7965073812152685  0.5619085786069450
