Ge Si O 
 1.0000000000000000
     9.8988870421413964    0.0241488622411505    0.0078621639510628
    -4.9285286544465272    8.5432901788114748    0.0019459343971940
     0.0086826631586896    0.0074710038367217   10.9014031127973503
 Ge  Si  O  
   2  22  48
Direct
  0.0015154573027319  0.2326745290495959  0.1654391521249821
  0.5015154573027275  0.2326745290495926  0.6654391521249816
  0.0052698999418934  0.2342320839617938  0.6653589748394644
 -0.0012796469802252  0.7367319747758202  0.1681486728526834
 -0.0050765529911156  0.7340928251069485  0.6679337038540687
  0.5052698999418939  0.2342320839617954  0.1653589748394638
  0.4949234470088854  0.7340928251069516  0.1679337038540694
  0.4987203530197714  0.7367319747758195  0.6681486728526825
  0.2732214629723765  0.2650038115644407 -0.0014962064066534
  0.2661902639872162  0.2669146195863948  0.4965192611458478
  0.2599962849386894  0.7613739602733396  0.0008917364865737
  0.2639126947966527  0.7697165048315354  0.5024557784736654
  0.7661902639872193  0.2669146195863942 -0.0034807388541508
  0.7732214629723743  0.2650038115644392  0.4985037935933467
  0.7639126947966545  0.7697165048315330  0.0024557784736666
  0.7599962849386885  0.7613739602733398  0.5008917364865727
  0.2373706385722389  0.0033974798838811  0.3319288642881257
  0.2306697497176177 -0.0049868341880990  0.8323441025000671
  0.2327306930240213  0.5034796359253750  0.3357708639944324
  0.2356207063175479  0.4982679452111080  0.8348793067854483
  0.7306697497176221 -0.0049868341880961  0.3323441025000652
  0.7373706385722383  0.0033974798838793  0.8319288642881257
  0.7356207063175477  0.4982679452111091  0.3348793067854477
  0.7327306930240211  0.5034796359253707  0.8357708639944313
  0.0670901920798294  0.3708747045978352  0.2818779823603783
  0.0775907230407235  0.3649257859595242  0.7722141977070490
  0.0769350701250753  0.8686688840934431  0.2734359480576146
  0.0661599711435112  0.8631504806401226  0.7763909373405831
  0.5775907230407225  0.3649257859595283  0.2722141977070475
  0.5670901920798269  0.3708747045978303  0.7818779823603802
  0.5661599711435140  0.8631504806401251  0.2763909373405844
  0.5769350701250715  0.8686688840934438  0.7734359480576138
  0.1477243899756374  0.2021522827946658  0.1096849373518481
  0.1394785776992800  0.2056180951758795  0.6070145559546601
  0.1283868346008137  0.7047173772285578  0.1065765877009781
  0.1302730113888221  0.7098675862267536  0.6072818714092719
  0.6394785776992834  0.2056180951758831  0.1070145559546619
  0.6477243899756318  0.2021522827946601  0.6096849373518458
  0.6302730113888214  0.7098675862267535  0.1072818714092722
  0.6283868346008136  0.7047173772285611  0.6065765877009779
  0.2898199185376404  0.4293717172238537  0.4421476518239978
  0.2941865195623283  0.4254025138649234  0.9416245374365345
  0.2926456050269882  0.9318710315685591  0.4423042874178324
  0.2868400391967619  0.9219293467944983  0.9402104249865170
  0.7941865195623262  0.4254025138649228  0.4416245374365358
  0.7898199185376423  0.4293717172238520  0.9421476518239975
  0.7868400391967650  0.9219293467944998  0.4402104249865156
  0.7926456050269904  0.9318710315685559  0.9423042874178308
  0.3698608624425798  0.0744388862582295  0.2260064565361721
  0.3566466961724443  0.0554634709609820  0.7216458914742252
  0.3610220443599123  0.5718666996457430  0.2266028646526660
  0.3673469106394973  0.5760393097111332  0.7294413928378408
  0.8566466961724489  0.0554634709609849  0.2216458914742244
  0.8698608624425777  0.0744388862582280  0.7260064565361704
  0.8673469106394993  0.5760393097111352  0.2294413928378422
  0.8610220443599110  0.5718666996457389  0.7266028646526635
  0.2074584757377201  0.1380439409211856  0.3878675853474764
  0.2140574082223085  0.1367353061865813  0.8894743152785142
  0.2098869953122170  0.6407966073031627  0.3944023453397347
  0.2040271697787602  0.6291127966892543  0.8954760797255371
  0.7140574082223100  0.1367353061865822  0.3894743152785132
  0.7074584757377175  0.1380439409211824  0.8878675853474788
  0.7040271697787599  0.6291127966892567  0.3954760797255346
  0.7098869953122173  0.6407966073031581  0.8944023453397367
  0.4352461777119407  0.2921757852404454  0.0558857478605661
  0.4328980700653133  0.2988321782638045  0.5466729794256480
  0.4211010541073095  0.7915668494611648  0.0615730707167345
  0.4231756314715429  0.7954798272062832  0.5640131403175598
  0.9328980700653170  0.2988321782638034  0.0466729794256468
  0.9352461777119369  0.2921757852404429  0.5558857478605687
  0.9231756314715476  0.7954798272062854  0.0640131403175607
  0.9211010541073064  0.7915668494611581  0.5615730707167332
