Ge Si O 
 1.0000000000000000
     9.9030178407608176    0.0232507345957143    0.0077308667190822
    -4.9313731911157888    8.5413889690211384    0.0000000472574331
     0.0085294194793440    0.0049245193794826   10.9088895150336658
 Ge  Si  O  
   2  22  48
Direct
  0.0000003499176900  0.2293255984862140  0.1666663288787320
  0.0000003499175725  0.2293255984861217  0.6666663288789225
 -0.0000000246944527  0.7405583213831706  0.1666671950926960
 -0.0000000246945374  0.7405583213830979  0.6666671950928273
  0.5069445716993618  0.2372953283625456  0.1640241294624191
  0.5069445716992342  0.2372953283625181  0.6640241294626354
  0.4930550734708141  0.7303505522382583  0.1693091902860433
  0.4930550734707129  0.7303505522382246  0.6693091902861631
  0.2730309530085737  0.2668518936738303 -0.0005767811766844
  0.2730309530086159  0.2668518936738510  0.4994232188232771
  0.2643657531285319  0.7673455928229272  0.0000834536323796
  0.2643657531285473  0.7673455928229159  0.5000834536324489
  0.7668856531652387  0.2654637088351456 -0.0042643573649706
  0.7668856531652165  0.2654637088351442  0.4957356426350327
  0.7588802550745422  0.7635151011212039  0.0030472157358502
  0.7588802550745692  0.7635151011211923  0.5030472157359434
  0.2411203000141500  0.0046358493933457  0.3302854992926156
  0.2411203000141175  0.0046358493934321  0.8302854992927320
  0.2331140825069797  0.4985772847452757  0.3375986682896536
  0.2331140825071145  0.4985772847453525  0.8375986682897694
  0.7269697068488534 -0.0061777424253114  0.3339101301424367
  0.7269697068488460 -0.0061777424251940  0.8339101301425725
  0.7356335949322227  0.5029784197030165  0.3332495450053832
  0.7356335949323388  0.5029784197030949  0.8332495450055381
  0.0675671543495744  0.3647823663496304  0.2849230911400206
  0.0675671543497754  0.3647823663498315  0.7849230911400675
  0.0789996184940364  0.8738456156311422  0.2709484268130006
  0.0789996184942278  0.8738456156312523  0.7709484268129518
  0.5779570195288956  0.3699789545609067  0.2695710418325983
  0.5779570195291338  0.3699789545611278  0.7695710418326211
  0.5640822205373478  0.8583254049826863  0.2785247242164203
  0.5640822205375974  0.8583254049828295  0.7785247242163698
  0.1465747054329469  0.1998704519126483  0.1098206397048073
  0.1465747054328922  0.1998704519125553  0.6098206397048571
  0.1306025979409322  0.7112133591539235  0.1039045732296821
  0.1306025979408317  0.7112133591539507  0.6039045732296804
  0.6407772961624324  0.2081588838329770  0.1063245509190205
  0.6407772961622981  0.2081588838329025  0.6063245509191003
  0.6270357090081011  0.7035887572947011  0.1090929800627421
  0.6270357090079695  0.7035887572946999  0.6090929800627604
  0.2937773686479805  0.4284101737404726  0.4449867665398123
  0.2937773686478788  0.4284101737402739  0.9449867665397782
  0.2953289349926694  0.9289760623391623  0.4379319505852607
  0.2953289349926588  0.9289760623391189  0.9379319505852101
  0.7910128302121471  0.4268013187827943  0.4389076587401603
  0.7910128302120261  0.4268013187825933  0.9389076587401329
  0.7840214766451993  0.9245573231906039  0.4441111545607151
  0.7840214766451553  0.9245573231905262  0.9441111545606488
  0.3729647077722582  0.0765539286009931  0.2242404976870639
  0.3729647077720819  0.0765539286007503  0.7242404976870773
  0.3592218860097103  0.5673803809133153  0.2270087396818825
  0.3592218860095735  0.5673803809131841  0.7270087396818637
  0.8534257697323132  0.0532954763006909  0.2235119107406150
  0.8534257697321079  0.0532954763004689  0.7235119107406689
  0.8693968447445629  0.5806106329146994  0.2294289589775873
  0.8693968447443972  0.5806106329145679  0.7294289589775840
  0.2159787248648797  0.1405355113254923  0.3892226339820366
  0.2159787248649640  0.1405355113255931  0.8892226339821071
  0.2089871811334483  0.6357887658710285  0.3944253914896063
  0.2089871811334291  0.6357887658710279  0.8944253914896089
  0.7062226673797153  0.1346337913463844  0.3883472235024246
  0.7062226673798193  0.1346337913464842  0.8883472235025086
  0.7046708615155531  0.6336462915873450  0.3954005381827953
  0.7046708615155615  0.6336462915873586  0.8954005381828025
  0.4359173503002419  0.2942426911471629  0.0548094509077873
  0.4359173503004433  0.2942426911472462  0.5548094509077341
  0.4220431128755261  0.7920225808855905  0.0637615251674354
  0.4220431128756544  0.7920225808856182  0.5637615251674120
  0.9324325299075124  0.2972149889578961  0.0484100286786274
  0.9324325299077429  0.2972149889580293  0.5484100286785606
  0.9210011627383788  0.7948463800367903  0.0623853253786902
  0.9210011627385408  0.7948463800368265  0.5623853253786749
