Ge Si O 
 1.0000000000000000
     9.8998687647896570    0.0214113294466805    0.0073409462587719
    -4.9314065332848216    8.5386315784891540   -0.0021758594374425
     0.0081093047923387    0.0019097819872149   10.9087551880406863
 Ge  Si  O  
   2  22  48
Direct
  0.0047698317263615  0.2334109504650116  0.1654309409720814
  0.5047698317263618  0.2334109504650115  0.1654309409720824
  0.0012704309968858  0.2335018643664187  0.6653788600538646
 -0.0052748767060969  0.7332740477443004  0.1678838319017645
 -0.0012765064555655  0.7370024434210535  0.6679355282185118
  0.5012704309968855  0.2335018643664185  0.6653788600538670
  0.4947251232939031  0.7332740477443037  0.1678838319017663
  0.4987234935444351  0.7370024434210526  0.6679355282185118
  0.2728045273855934  0.2680431706490350 -0.0037624023571235
  0.2663583432506792  0.2644172335735627  0.4986032341469027
  0.2604144015144337  0.7640841695308935  0.0012298819697808
  0.2637556519932488  0.7672194351656699  0.5021190010330181
  0.7728045273855939  0.2680431706490383 -0.0037624023571253
  0.7663583432506779  0.2644172335735636  0.4986032341469034
  0.7604144015144337  0.7640841695308954  0.0012298819697832
  0.7637556519932487  0.7672194351656698  0.5021190010330170
  0.2307390950582823 -0.0028266777527419  0.3321935446999663
  0.2374821761474515  0.0010918051227935  0.8325062358777729
  0.2361207582044447  0.5010247855507549  0.3368773003322481
  0.2326953214718961  0.5006107238111301  0.8335413372814026
  0.7307390950582796 -0.0028266777527397  0.3321935446999664
  0.7374821761474518  0.0010918051227937  0.8325062358777732
  0.7361207582044461  0.5010247855507548  0.3368773003322482
  0.7326953214718915  0.5006107238111326  0.8335413372814005
  0.0696548618187558  0.3679278066818605  0.2845488431818769
  0.0748808481602171  0.3668132098250906  0.7704527541880206
  0.0673503276428063  0.8626058516206340  0.2761663488336928
  0.0759784689095585  0.8683397619770284  0.7738277787866977
  0.5696548618187562  0.3679278066818589  0.2845488431818790
  0.5748808481602115  0.3668132098250909  0.7704527541880224
  0.5673503276428014  0.8626058516206374  0.2761663488336953
  0.5759784689095607  0.8683397619770299  0.7738277787866956
  0.1529923329847982  0.2042872699593424  0.1112595926549305
  0.1340915924379146  0.2055768786988678  0.6043840222925170
  0.1283393603503297  0.7069715356087902  0.1066952128598863
  0.1297762624184764  0.7069534023000404  0.6063919947897373
  0.6529923329847969  0.2042872699593414  0.1112595926549283
  0.6340915924379127  0.2055768786988680  0.6043840222925168
  0.6283393603503323  0.7069715356087942  0.1066952128598909
  0.6297762624184774  0.7069534023000400  0.6063919947897369
  0.2966769549071709  0.4286683451078510  0.4422707887711698
  0.2888387717892857  0.4268744753747495  0.9409278803072476
  0.2882944218611481  0.9272816009074673  0.4418136770843446
  0.2913854220260496  0.9269175400579543  0.9412811581660372
  0.7966769549071717  0.4286683451078532  0.4422707887711723
  0.7888387717892859  0.4268744753747530  0.9409278803072445
  0.7882944218611461  0.9272816009074667  0.4418136770843425
  0.7913854220260506  0.9269175400579565  0.9412811581660394
  0.3569459246418910  0.0575744417040757  0.2216061035757045
  0.3699883826452722  0.0720558115000299  0.7268583284069655
  0.3620184287071578  0.5704197664146762  0.2264906166930038
  0.3657324913180603  0.5764903865465415  0.7286158771121704
  0.8569459246418865  0.0575744417040779  0.2216061035757030
  0.8699883826452708  0.0720558115000304  0.7268583284069631
  0.8620184287071576  0.5704197664146748  0.2264906166930029
  0.8657324913180554  0.5764903865465429  0.7286158771121679
  0.2095045547817376  0.1368596058104902  0.3888353035885665
  0.2114153498899334  0.1376812219358425  0.8887591431314167
  0.2115216823625568  0.6370944780078193  0.3955294238868808
  0.2036570150619925  0.6335308173492851  0.8938453596382137
  0.7095045547817379  0.1368596058104937  0.3888353035885667
  0.7114153498899338  0.1376812219358438  0.8887591431314155
  0.7115216823625563  0.6370944780078190  0.3955294238868796
  0.7036570150619879  0.6335308173492854  0.8938453596382163
  0.4415313912054444  0.3023585532778768  0.0443668150625546
  0.4251517009546714  0.2882459788985693  0.5590360193029399
  0.4202112894107094  0.7908056530646377  0.0622045801581066
  0.4242030091254757  0.7968116557219065  0.5638950833958017
  0.9415313912054454  0.3023585532778787  0.0443668150625534
  0.9251517009546727  0.2882459788985693  0.5590360193029366
  0.9202112894107093  0.7908056530646366  0.0622045801581069
  0.9242030091254766  0.7968116557219085  0.5638950833958009
