Ge Si O 
 1.0000000000000000
     9.9006209307475999    0.0009947190006348   -0.0029406450594990
    -4.9494452383834373    8.5521961630730932    0.0065966866309507
    -0.0032395225987360    0.0065466027861355   10.9055940017869215
 Ge  Si  O  
   2  22  48
Direct
  0.0026872793777838  0.2330717258477110  0.1680124441341459
  0.2684466522372116  0.2684821104488953  0.4996608694071424
 -0.0007067031848722  0.2311168746350613  0.6699787196944093
 -0.0026242090558946  0.7334633141554084  0.1658957974080412
 -0.0003419255921529  0.7395152476425290  0.6673030130556040
  0.5055066946344331  0.2360769875688949  0.1656822197111242
  0.5076159896644948  0.2343212748688153  0.6654651360792857
  0.4934906921769038  0.7328114743712011  0.1667911061417372
  0.4951442517526784  0.7341071545638873  0.6661971259201089
  0.2747306705432666  0.2685470272641819 -0.0007070572458247
  0.2622327461653140  0.7641205464955894 -0.0017423873333665
  0.2648083308957903  0.7728479850530928  0.4994121617925199
  0.7665931082030075  0.2658237942997864 -0.0016595840780104
  0.7700095684532593  0.2625199343950764  0.5002368409154713
  0.7587015613283790  0.7621399776411251  0.0016702329480173
  0.7595475072517016  0.7607210701413355  0.5013782615752894
  0.2362252261999501  0.0028273176360140  0.3282313422043848
  0.2392324065658072  0.0032266125881403  0.8308222171567277
  0.2332712276867703  0.5068726720870648  0.3365917245324659
  0.2334823761674480  0.4981637090181809  0.8340902719705287
  0.7293186072080450 -0.0062770997410161  0.3330843857687513
  0.7303392094177164 -0.0024577521018100  0.8344000436001023
  0.7365355588060313  0.4971044682121292  0.3356647283745124
  0.7351860547908585  0.5013356426076157  0.8339359781453042
  0.0677885381474866  0.3668549156108728  0.2877948191798732
  0.0718248849638623  0.3630234411664601  0.7761347383758739
  0.0759630765068398  0.8657022119994142  0.2707706145381155
  0.0760261433138388  0.8726823791720369  0.7719706262837909
  0.5757436561122754  0.3638291212599274  0.2749074722356238
  0.5772226281354889  0.3659750953452316  0.7717909290373361
  0.5654018652068552  0.8612123326409328  0.2757146024097741
  0.5698679203282535  0.8635560282533647  0.7741081958786853
  0.1488937051683721  0.2046172200613496  0.1100350527542077
  0.1323883477416202  0.1972408638623158  0.6176880561744381
  0.1286699032742767  0.7057795728170233  0.1025315080230870
  0.1322279724234254  0.7129845047926254  0.6048679623092605
  0.6411152419906906  0.2092127619532060  0.1092544191960935
  0.6419365596069324  0.2050678728310288  0.6095060765647190
  0.6265706492413097  0.7044154005156736  0.1074190222402193
  0.6268191951976467  0.7039682621764108  0.6063597490373307
  0.2999894746692139  0.4474729741281378  0.4474128759537225
  0.2948661621800303  0.4279889120946334  0.9410014634843917
  0.2932221820301661  0.9355063558326118  0.4405667366972656
  0.2927990979008908  0.9258047856439652  0.9372310880285257
  0.7958057529475226  0.4237291667580426  0.4412621920134118
  0.7913828290031165  0.4268159797139247  0.9403876201647685
  0.7859485056292332  0.9205624758829795  0.4402268603895329
  0.7868576414919506  0.9237209370892578  0.9416894213515397
  0.3686849868402405  0.0737676223270484  0.2223252286830039
  0.3699946140508671  0.0740777315433592  0.7237122307156652
  0.3569074811183077  0.5710643778512070  0.2242840622307487
  0.3615781361379685  0.5719442501932435  0.7252928634390609
  0.8556000874519474  0.0558913933379645  0.2226864471868511
  0.8620156765780622  0.0711355397258236  0.7285108946729997
  0.8667748664948738  0.5728482628130945  0.2286396000899766
  0.8689126828009377  0.5787773704739064  0.7296760743327909
  0.2016974798218241  0.1364675823862757  0.3787816539554689
  0.2172073529337080  0.1396074360167605  0.8912122710108117
  0.2086324058633769  0.6451438774757535  0.3902360692233936
  0.2061226578170204  0.6322354397013259  0.8926201439817056
  0.7102574749253872  0.1328397294868220  0.3921808303596054
  0.7034462586465399  0.1321263197628392  0.8933255066231036
  0.7061650455665656  0.6283018410327055  0.3963705803393024
  0.7032485172543520  0.6318072577308027  0.8943656215143563
  0.4378282114298819  0.2974223150291087  0.0567302838734915
  0.4443247815899777  0.2957471425538890  0.5538943253955170
  0.4226747331093100  0.7930236856865603  0.0600513570557641
  0.4234323025624998  0.7959793336580633  0.5610718277863949
  0.9337888819010282  0.2995720323884790  0.0495003151031796
  0.9313216969624555  0.2888930581594402  0.5590061790150261
  0.9191728995394435  0.7895419510625140  0.0621018918817805
  0.9214459536958793  0.7935788082997540  0.5623960473265793
