Ge Si O 
 1.0000000000000000
     9.9030397531936352   -0.0000000417804591    0.0000000191567751
    -4.9515199113339321    8.5508504008524433    0.0061070541121320
     0.0000000204983263    0.0078016967841925   10.9013700813271193
 Ge  Si  O  
   2  22  48
Direct
 -0.0007154023955281  0.2340412062692079  0.1655257661519761
  0.7652434008172181  0.7659587988857712  0.5011409012787738
 -0.0032598095616305  0.2324328723704320  0.6649070063001864
  0.0000444438933239  0.7368245463480033  0.1669208510961835
  0.0060403902295889  0.7365612550366607  0.6670261181569115
  0.5025835697489317  0.2322363096548135  0.1645706156044856
  0.5011474743783099  0.2372219146783451  0.6658752202781452
  0.4969272483395082  0.7321358587785387  0.1689348139336115
  0.4978852835775170  0.7329406558899321  0.6710713393954263
  0.2694791418253940  0.2634387412253792 -0.0003594463813524
  0.2632199035692495  0.2631754563778224  0.4997458124023555
  0.2639255703496436  0.7627780939528749  0.0007914544653261
  0.2703472530789323  0.7677636834452323  0.5020960531415136
  0.7649446350753074  0.2670593453589033 -0.0044046748836274
  0.7647913850046923  0.2678641418728284  0.4977318526761301
  0.7643073225179869  0.7675671190102061  0.0017596576825092
  0.2370743902977714 -0.0000000031031719  0.3333333362632491
  0.2398026452686783 -0.0000000058349530  0.8333333311089764
  0.2359024470592370  0.5006400688263530  0.3362528531269078
  0.2298059586831795  0.4955529185601857  0.8350073635264105
  0.7266640877473136 -0.0000000013312644  0.3333333305896109
  0.7340190785859771 -0.0000000056600735  0.8333333392129111
  0.7352623755505179  0.4993599284782354  0.3304138100335859
  0.7342530431176062  0.5044470749260497  0.8316593069888717
  0.0681928676319454  0.3692857213633694  0.2839118586958247
  0.0703606647089416  0.3620888245889177  0.7729132095823010
  0.0748757335531922  0.8660694506054571  0.2748229173891903
  0.0785337686882107  0.8666490623419654  0.7742048367277972
  0.5761311142796471  0.3620493691788831  0.2716839635789423
  0.5740694933671462  0.3714714474365838  0.7701896360387411
  0.5649104811043210  0.8597475877701803  0.2790042416584572
  0.5712793333787117  0.8642401930881795  0.7775205374665497
  0.1434816969424434  0.2004800707486843  0.1103828360047814
  0.1299244482857213  0.2047032344152705  0.6046943142065679
  0.1329765860069907  0.7095616564558203  0.1066660074596890
  0.1402340142095526  0.7078307073026433  0.6100234598422446
  0.6369099410971160  0.2053194682324836  0.1050682720462186
  0.6342866670949472  0.2104852426926862  0.6048222099091963
  0.6328315302371931  0.7092597750630346  0.1082477807342998
  0.6293898656647016  0.6966759780047794  0.6191730818905835
  0.2939241084654938  0.4265340075362760  0.4418662109320802
  0.2889026773253441  0.4222259495670914  0.9410314615425555
  0.2949462430507246  0.9279211219361803  0.4414184134826786
  0.2964926375388387  0.9250638723983151  0.9393491309559250
  0.7942808350618847  0.4315449126394950  0.4405870598224760
  0.7877973254007369  0.4274284892468234  0.9380981136749543
  0.7913864035359884  0.9413460106665763  0.4458316406938161
  0.7928232077073978  0.9295968645948569  0.9417672417364233
  0.3670251038642305  0.0720788750073995  0.2252482461579448
  0.3714287536097406  0.0749361306211906  0.7273175281434726
  0.3627359038967412  0.5684550898062984  0.2260795903452817
  0.3603688154953772  0.5725715027946000  0.7285685387281066
  0.8500403731391707  0.0586539872291007  0.2208350060211474
  0.8632263163931135  0.0704031278068825  0.7248994181488233
  0.8673900867995801  0.5734659901386887  0.2248004405057743
  0.8666767125248227  0.5777740573264331  0.7256352037598561
  0.2088062792046599  0.1339305457267297  0.3918437489977365
  0.2118847082138095  0.1333509303000261  0.8924618315653962
  0.2140817367566407  0.6379506194517590  0.3949827081052684
  0.2025980422917683  0.6285285516095993  0.8964770407720353
  0.7051628817419143  0.1402523967078597  0.3876624341796044
  0.7070391360777371  0.1357597969196239  0.8891461372633358
  0.6989071410041378  0.6307142686560030  0.3827548166177155
  0.7082718462815923  0.6379111614088282  0.8937534656235792
  0.4324033273764881  0.2921693170595360  0.0566432143467360
  0.4234149317482012  0.2904383509103551  0.5600006655894274
  0.4238014393996396  0.7895147710501420  0.0618444600075247
  0.4315904751245834  0.7946805454774144  0.5615983946023503
  0.9327138959302690  0.3033240334927159  0.0474935838796322
  0.9235717579062626  0.2907402375493894  0.5584188844408239
  0.9252212245761521  0.7952967836341325  0.0619723525247252
  0.9430016295449722  0.7995199374219787  0.5562838414480442
