Ge Si O 
 1.0000000000000000
     9.9056112408076444    0.0009402795118430    0.0015054243899324
    -4.9519939694184751    8.5497907469466607    0.0001879210099031
     0.0016564298171742    0.0012212549684042   10.9032426311025379
 Ge  Si  O  
   2  22  48
Direct
 -0.0007396668930164  0.2301669461881005  0.1698457302224173
  0.2748470664396323  0.2694098644372860 -0.0001233063433620
  0.0019381775033785  0.2336481076148668  0.6676982134854099
 -0.0004928922736530  0.7388973621755409  0.1673340820556923
 -0.0025878253484949  0.7339969819754456  0.6658527579176494
  0.5112256484242771  0.2352852900642258  0.1657590358421900
  0.5012895560777229  0.2349475264542913  0.6657750989559801
  0.4907672928034093  0.7304228861529968  0.1661933336153603
  0.4975965705580888  0.7361599451607007  0.6665810979901869
  0.2680174888276313  0.2679628326034368  0.4998796009566731
  0.2616061526978242  0.7676478339361165 -0.0018931695254909
  0.2657764420442999  0.7696600877844433  0.4994796953794738
  0.7700977902214263  0.2656904632493408 -0.0020463888637775
  0.7664663156232165  0.2629931729084142  0.5002147282572112
  0.7591269582409713  0.7626724149029142  0.0018764868565858
  0.7594485715621963  0.7605998729500223  0.5012330962336465
  0.2395367740752670  0.0054923073974736  0.3306326633444432
  0.2361036492855713  0.0004865028652809  0.8289221610230054
  0.2333784673984597  0.5005071321353783  0.3363314127087602
  0.2328163477893267  0.5040367237396072  0.8337636311426261
  0.7240585142282095 -0.0085559088068176  0.3340464378944795
  0.7362776762462517 -0.0003872353246499  0.8332025536417518
  0.7390656800303479  0.4993063455175367  0.3353159385427592
  0.7336125452347504  0.4991343791199689  0.8342292054951658
  0.0643190128933624  0.3658060627794433  0.2884305106270956
  0.0747394609335675  0.3646221279951427  0.7748266436127572
  0.0775647878609147  0.8725051748390604  0.2716863875193457
  0.0745343482974257  0.8648305509906240  0.7720253699424038
  0.5803372988674151  0.3642253732381473  0.2741054770629198
  0.5730793544162400  0.3648024063881994  0.7736737580073414
  0.5605328061199211  0.8570632629530600  0.2770132181106064
  0.5753175309416959  0.8671188832560627  0.7728558801459797
  0.1458084806824285  0.1945840002707613  0.1227153300193255
  0.1355226536856227  0.2082076330282748  0.6055463016303854
  0.1300514593473602  0.7103776823162566  0.1038242790955079
  0.1303799759894226  0.7084878807584191  0.6027838134978051
  0.6465873088304395  0.2063223603444406  0.1108338065309560
  0.6351894785257635  0.2083872794149743  0.6062928903214007
  0.6254753283632425  0.7048320555195401  0.1064106557873865
  0.6269401278954478  0.7028347949833758  0.6064556772800679
  0.2966644512956242  0.4308915405475144  0.4419539990079306
  0.2971475294585854  0.4438762691736660  0.9456418732642625
  0.2945281976250355  0.9308922152322200  0.4385637003275304
  0.2926481041026086  0.9311806761113809  0.9396271087884540
  0.7979134374666770  0.4258705731615670  0.4408235448102878
  0.7911506759633659  0.4254765076534237  0.9404492753658223
  0.7838138830174525  0.9200008981031187  0.4405155070238619
  0.7894953010116232  0.9247192222914601  0.9415302747471862
  0.3706022124927694  0.0764212800468148  0.2234655079641694
  0.3680477277753031  0.0709785550232742  0.7227573522683002
  0.3558744334768884  0.5666010963538373  0.2230447114605195
  0.3622894848782610  0.5759750567810500  0.7260255423285392
  0.8481896522866058  0.0541328918366273  0.2223499543936910
  0.8696918960840538  0.0718177507809144  0.7282159857321454
  0.8708879455902080  0.5775547823944034  0.2300851067829094
  0.8646522656620599  0.5733211629439398  0.7273132003410413
  0.2132011679215310  0.1396732304869077  0.3910782817743498
  0.2056131599878989  0.1363117829029014  0.8797785894388892
  0.2124885119240855  0.6393470400151734  0.3929581798634985
  0.2031519996239158  0.6385645657049450  0.8894493890857323
  0.7057955282289673  0.1310387305290997  0.3936066366173345
  0.7088304093835257  0.1342892732186217  0.8911552635205031
  0.7054724396567330  0.6284934328097219  0.3957820623037567
  0.7053412339514334  0.6320618795579389  0.8947741053526925
  0.4527491489688135  0.2997011248044834  0.0526386110013128
  0.4281241654671343  0.2941661190788835  0.5601975655778553
  0.4202433309752883  0.7914162824676720  0.0597301985340340
  0.4255940718708529  0.7978793894225900  0.5619628825557142
  0.9381028385964930  0.2996251885791969  0.0479130892736535
  0.9256382686904140  0.2885710543119244  0.5615204608218248
  0.9195081833557120  0.7922954574391067  0.0635684774231306
  0.9209356287603044  0.7916656059560330  0.5619394662245576
