Ge Si O 
 1.0000000000000000
     9.8998991615693210   -0.0000000411931901    0.0000000198667011
    -4.9499496154400537    8.5550117896516173    0.0057304295640521
     0.0000000215870406    0.0073161518581307   10.9025112222516825
 Ge  Si  O  
   2  22  48
Direct
  0.0001030199608116  0.2342767371882385  0.1670172437152847
  0.2658262827021170  0.7657232704826562 -0.0003505773714262
 -0.0026230056204562  0.2286548501476222  0.6659168318227453
 -0.0007777330054347  0.7357530598695545  0.1698437312794868
  0.0020492986674772  0.7387917640890337  0.6676424957935734
  0.5020284373116348  0.2359946450969573  0.1637602082698963
  0.5003077075165417  0.2373944194021546  0.6641579510019984
  0.5009830099543602  0.7299365038757850  0.1684117390070393
  0.4986370491266158  0.7340697267462392  0.6682832392160686
  0.2710465048856061  0.2700634944948564 -0.0017450739392280
  0.2645673366306762  0.2659302734505314  0.4983834236639101
  0.2687221501227207  0.7713451492972843  0.5007498423276703
  0.7634692122983786  0.2642469441103474 -0.0031770639191881
  0.7632575306141534  0.2612082320071746  0.4990241822179783
  0.7660337930313129  0.7640053410655878  0.0029064509742269
  0.7629133030440345  0.7626055868324358  0.5025087291466397
  0.2373064059114802  0.0034474061829126  0.3312572793405837
  0.2366813687619278  0.0069129447549497  0.8318835952720398
  0.2353558364922841  0.5030288403826082  0.3356376849957999
  0.2323270001434851  0.4969711607405322  0.8310289875869331
  0.7297684233177117 -0.0069129451926882  0.3347830659319496
  0.7338589872296800 -0.0034474216459975  0.8354093990836735
  0.7325491185060156  0.4977847579682655  0.3346373725149488
  0.7347643595778561  0.5022152351214919  0.8320292907647073
  0.0672505349802772  0.3704797251040305  0.2847444262354539
  0.0736259632613013  0.3589629653481600  0.7724527564230320
  0.0740986579348339  0.8690053913574207  0.2747703901202841
  0.0760267403771132  0.8699998401356430  0.7742691748855097
  0.5728291666579854  0.3650878732868058  0.2722875985974167
  0.5751244453215822  0.3710223344261466  0.7687584700192646
  0.5674044893318411  0.8563500785122026  0.2789236305457635
  0.5721217193241697  0.8615865577411359  0.7773861131772354
  0.1463150714910452  0.2050395635868568  0.1098729636137547
  0.1303511054388339  0.2025140867031912  0.6030064122842335
  0.1305049939791812  0.6995368479226091  0.1177258989593487
  0.1354510631492159  0.7132281879105012  0.6056589890659346
  0.6367397955512938  0.2076573621024067  0.1069507530324873
  0.6314850577692999  0.2063155669354751  0.6048135920123594
  0.6376910604263775  0.7040339943412064  0.1123281843776546
  0.6318842871853821  0.7062087697847160  0.6088841780883041
  0.2935753838682053  0.4294169970657718  0.4419017234357795
  0.2918686841752704  0.4312218521662254  0.9426877758574853
  0.2963535341984714  0.9320392306697437  0.4389996614670112
  0.2978847677294388  0.9427024931089254  0.9429446347676174
  0.7916281050335550  0.4223711498148970  0.4385654841663398
  0.7873179511108535  0.4240239734840836  0.9377914767387080
  0.7900975234481981  0.9233235382390912  0.4421612582912613
  0.7915483924510790  0.9253839499218628  0.9440427106002053
  0.3661644215715816  0.0746160391170316  0.2226239528185138
  0.3667739709901338  0.0766764573384968  0.7245053958547282
  0.3606468167569900  0.5687781442338807  0.2239788827568534
  0.3641583730051415  0.5705830021741805  0.7247649353711199
  0.8551822626226052  0.0572975109458574  0.2237220131056471
  0.8643142823877699  0.0679607594139763  0.7276670027061489
  0.8632939668306713  0.5759760188894242  0.2288751738422700
  0.8692569384277570  0.5776288498523482  0.7281011743083413
  0.2105351601964079  0.1384134373007371  0.3892805479523752
  0.2110544216965037  0.1436499160198635  0.8877430419285864
  0.2146629962772635  0.6410370334435489  0.3942139210365030
  0.1967707984164307  0.6295202624673585  0.8819222503917757
  0.7060268848313844  0.1300001497798844  0.3923974998336547
  0.7050932606202506  0.1309946002849003  0.8918962829324157
  0.7041021081565702  0.6289776660315353  0.3979082019198253
  0.7077413030431985  0.6349121152443572  0.8943790676742631
  0.4336570708480008  0.2959660113658167  0.0543384719012557
  0.4256755366402862  0.2937912494107001  0.5577824931023797
  0.4412755105841275  0.7949604478340350  0.0567937047547854
  0.4278370325822640  0.7974859319705219  0.5636602493773705
  0.9309681511397095  0.3004631559113179  0.0489407683727846
  0.9222228975947837  0.2867718408119422  0.5610076755901023
  0.9290824262917178  0.7923426353000180  0.0597159199484949
  0.9251695171104187  0.7936844587183479  0.5618530870570385
