Ge Si O 
 1.0000000000000000
     9.9024356261287867    0.0242759574111132    0.0087480965482810
    -4.9301942128510934    8.5393467627955673   -0.0000000120222104
     0.0096584638836461    0.0055762958078057   10.9001181167581809
 Ge  Si  O  
   2  22  48
Direct
 -0.0000000031151502  0.2349109854947442  0.1666666778993749
 -0.0000000031151521  0.7349109854947367  0.6666666778993690
  0.0000000073871914  0.2350665788807685  0.6666666671282426
  0.0000000073871891  0.7350665788807681  0.1666666671282487
  0.5040558774633781  0.2356857354893229  0.1667313193270908
  0.4959440879516437  0.2316298452973226  0.6666020197563424
  0.4959440879516401  0.7316298452973093  0.1666020197563476
  0.5040558774633769  0.7356857354893224  0.6667313193270862
  0.2738796843003091  0.2703161811056998  0.0004522274409304
  0.2636585412814884  0.2640125380103863  0.4991208043444487
  0.2636585412814864  0.7640125380103824 -0.0008791956555497
  0.2738796843003083  0.7703161811056998  0.5004522274409264
  0.7630126287040806  0.2648801974613491 -0.0019568292268518
  0.7630552095485420  0.2644014168243803  0.5007490954461109
  0.7630552095485431  0.7644014168243772  0.0007490954461083
  0.7630126287040796  0.7648801974613463  0.4980431707731484
  0.2369447742388160  0.0013462084420448  0.3325842558321157
  0.2369873811980127  0.0018675516624799  0.8352901490390994
  0.2369873811980096  0.5018675516624770  0.3352901490391095
  0.2369447742388182  0.5013462084420376  0.8325842558321126
  0.7261203079875630 -0.0035635076473243  0.3328810873557198
  0.7363414794716668  0.0003539914837250  0.8342125368917391
  0.7363414794716726  0.5003539914837304  0.3342125368917419
  0.7261203079875593  0.4964364923526741  0.8328810873557175
  0.0686714135263481  0.3707628894532160  0.2846991344139875
  0.0775264572930092  0.3674896219490699  0.7719061887717935
  0.0775264572930136  0.8674896219490752  0.2719061887717927
  0.0686714135263469  0.8707628894532141  0.7846991344139805
  0.5771350438649996  0.3659844349466121  0.2738057261781834
  0.5644771068813934  0.3617076337007148  0.7746872577956978
  0.5644771068813955  0.8617076337007120  0.2746872577957000
  0.5771350438649928  0.8659844349466076  0.7738057261781811
  0.1467046321949809  0.2056489406137167  0.1103856857877620
  0.1310171165484752  0.2055814297796825  0.6043034735305592
  0.1310171165484741  0.7055814297796829  0.1043034735305653
  0.1467046321949839  0.7056489406137137  0.6103856857877611
  0.6370817499650989  0.2051847735565632  0.1088508930331717
  0.6312820627228267  0.2066305230926249  0.6069717557566310
  0.6312820627228265  0.7066305230926196  0.1069717557566292
  0.6370817499650941  0.7051847735565604  0.6088508930331668
  0.2950805037803977  0.4280361393249149  0.4414151754674124
  0.2940943435436322  0.4298483172282164  0.9418169659162380
  0.2940943435436248  0.9298483172282144  0.4418169659162365
  0.2950805037803989  0.9280361393249159  0.9414151754674087
  0.7927516878138776  0.4276490238917048  0.4424673953380686
  0.7824443327805595  0.4241556117338628  0.9409624041901349
  0.7824443327805631  0.9241556117338613  0.4409624041901364
  0.7927516878138783  0.9276490238917028  0.9424673953380669
  0.3687178990265967  0.0753484079091627  0.2263615683275775
  0.3629182297564326  0.0681030202237342  0.7244824319976690
  0.3629182297564230  0.5681030202237198  0.2244824319976742
  0.3687178990265987  0.5753484079091624  0.7263615683275740
  0.8532953470938441  0.0589442919328463  0.2229476257364879
  0.8689828805768780  0.0745642957111781  0.7290298336357539
  0.8689828805768861  0.5745642957111747  0.2290298336357620
  0.8532953470938418  0.5589442919328459  0.7229476257364889
  0.2072483501156045  0.1348973507743863  0.3908659689959819
  0.2175557180556654  0.1417112737969425  0.8923709195416235
  0.2175557180556709  0.6417112737969488  0.3923709195416175
  0.2072483501156049  0.6348973507743790  0.8908659689959809
  0.7059056996864269  0.1357539997189646  0.3915163488822213
  0.7049194848079574  0.1329556537128418  0.8919181212564249
  0.7049194848079570  0.6329556537128431  0.3919181212564246
  0.7059056996864296  0.6357539997189645  0.8915163488822181
  0.4355229015272133  0.2972305916281900  0.0586460957860560
  0.4228649416189497  0.2888494138248093  0.5595276430849194
  0.4228649416189549  0.7888494138248104  0.0595276430849219
  0.4355229015272082  0.7972305916281890  0.5586460957860565
  0.9313285900906574  0.3020914778408336  0.0486342104622147
  0.9224735303096524  0.2899631611488365  0.5614271648781691
  0.9224735303096442  0.7899631611488228  0.0614271648781731
  0.9313285900906556  0.8020914778408325  0.5486342104622129
