Ge Si O 
 1.0000000000000000
     9.9042273030711740   -0.0000000449741613    0.0000000228805987
    -4.9521136893427045    8.5516612038021993    0.0021679724982942
     0.0000000248839398    0.0027935336857034   10.9025986795514669
 Ge  Si  O  
   2  22  48
Direct
 -0.0025907914828452  0.2277670093004768  0.1658395589357503
  0.2696422040223916  0.7722329917397549  0.5008271070097297
 -0.0004347112568667  0.2341114227625868  0.6673100138198039
  0.0020562564186521  0.7386840299218004  0.1675710043754310
 -0.0008536299785520  0.7359101843701440  0.6699276825964633
  0.5044920364829389  0.2383278759351764  0.1640208446046795
  0.4977632608855812  0.2354492651055041  0.6635972541640663
  0.4943963181800636  0.7302931153536242  0.1682495747597460
  0.5047830890469174  0.7329635058099665  0.6684314983001485
  0.2718195920724799  0.2670364979000773 -0.0017648306961034
  0.2641032057162429  0.2697068870008915  0.4984170877962832
  0.2654538731375858  0.7658885792964758 -0.0006433455321332
  0.7632361898768379  0.2640898195904202 -0.0032610144247899
  0.7633722291929503  0.2613159757246808  0.4990956635148209
  0.7623140019857629  0.7645507381488327  0.0030694127790617
  0.7661641653146042  0.7616721325549772  0.5026458232071481
  0.2368161975695277  0.0097317949156213  0.3310761818456175
  0.2374043027963533  0.0010515902268309  0.8315716984830820
  0.2323266929597191  0.4999999981537434  0.3333333326328753
  0.2351637861009193  0.4999999967070592  0.8333333345139942
  0.7270843933884826 -0.0097317966336597  0.3355904845469430
  0.7363527077331347 -0.0010515953799418  0.8350949682473657
  0.7388405788794522  0.5000000010995050  0.3333333324337528
  0.7293394404669545  0.4999999994488469  0.8333333322217892
  0.0658954609218972  0.3619987899550403  0.2847304894579855
  0.0747017158655936  0.3664808938347697  0.7728971617473441
  0.0771637649855258  0.8707615071833664  0.2736333181515449
  0.0728492511713876  0.8684670274570848  0.7755870719579557
  0.5785855174873898  0.3692227249860774  0.2706847658271372
  0.5699353691033782  0.3667435542748771  0.7706596608543552
  0.5627785194224058  0.8553646669252661  0.2799517537755577
  0.5768827663394931  0.8620694254711782  0.7764038146582182
  0.1445482685230408  0.2003853319442543  0.1080724439663844
  0.1323483932883722  0.2076320663287235  0.6047899598957230
  0.1338418952397843  0.7115216904541755  0.1048480817149717
  0.1319893137372728  0.7019976846373179  0.6176378135982332
  0.6366203174712201  0.2064527221834238  0.1069205335323225
  0.6309722867981473  0.2076050615418126  0.6041729730924654
  0.6308459631039437  0.7070261365748586  0.1093163181215981
  0.6377707345770426  0.7020506506592906  0.6117212852175153
  0.2934980585014787  0.4347273221454914  0.4440096414051841
  0.2922255632177521  0.4266178130834391  0.9406952194921284
  0.2990226326209230  0.9482937242256619  0.4437354295380778
  0.2960547833477161  0.9272388005532670  0.9372045133779101
  0.7945765682693967  0.4230024150051248  0.4380127581587018
  0.7854495093988969  0.4237251780327174  0.9383953210163889
  0.7876084711958655  0.9207061679355962  0.4430999841910431
  0.7932200264858600  0.9277243225357240  0.9440501381251148
  0.3669022960180887  0.0792938350750297  0.2235666710859954
  0.3654956985625846  0.0722756761242309  0.7226165238419709
  0.3587707231379156  0.5652726811172740  0.2226570145209866
  0.3656077332275547  0.5733821866581190  0.7259714374485706
  0.8507288914077269  0.0517062762551093  0.2229312286930447
  0.8688159693285082  0.0727611916681771  0.7294621429912088
  0.8715741472078907  0.5769975812869216  0.2286538978314777
  0.8617243311482164  0.5762748207595013  0.7282713426240466
  0.2074138519196383  0.1446353193272631  0.3867149216296744
  0.2148133501796350  0.1379305672222058  0.8902628627861614
  0.2038966552452339  0.6380011910969942  0.3819361892098845
  0.2082208181528098  0.6335190886164113  0.8937695229954749
  0.7064022489910268  0.1292384836015485  0.3930333609538465
  0.7043822230888058  0.1315329650817955  0.8910796041188671
  0.7093628028117394  0.6307772744053373  0.3959819105435530
  0.7031918272929678  0.6332564464721147  0.8960070107274175
  0.4357200962498390  0.2979493589708854  0.0549453791794691
  0.4238198280216041  0.2929738640141102  0.5573503453919768
  0.4247163431753292  0.7923679462140214  0.0618766989497509
  0.4441629464820837  0.7996146800281905  0.5585942201851042
  0.9299916386570608  0.2980023256087840  0.0490288504886091
  0.9223202081339614  0.2884783191113629  0.5618185864634609
  0.9233672349509977  0.7923949452959249  0.0624936906602839
  0.9301675960240028  0.7935472790039000  0.5597461356651787
